LAMMPS (30 Jul 2016)
atom_style         meso-molecular
dimension          3
newton             on
units              micro
read_data          zs_coating_50_1.50.data
  orthogonal box = (0 0 0) to (450 24 240)
  4 by 1 by 3 MPI processor grid
  reading atoms ...
  42464 atoms

variable           h         equal 2.0
variable           h_act     equal 3.0
variable 		   h_mix	 equal (${h}+${h_act})/2.0
variable 		   h_mix	 equal (2+${h_act})/2.0
variable 		   h_mix	 equal (2+3)/2.0
variable           c     equal 100.0             # soundspeed for Tait's EOS
variable           dt    equal 0.0001
variable		   visc  equal 2357.8			 # viscosity in g/m*s (avg visc should be 2.3578 kg/m*s)

group              cbd type 1
5366 atoms in group cbd
group			   solvent type 2
24666 atoms in group solvent
group  			   cbd_solvent type 1 2
30032 atoms in group cbd_solvent
group			   active type 3
6576 atoms in group active
group              slurry type 1 2 3
36608 atoms in group slurry
group              bc type 4
4788 atoms in group bc

pair_style         hybrid/overlay sph/rhosum 1 sph/taitwater/morris
pair_coeff         * * sph/taitwater/morris 0.93 ${c} ${visc} ${h}
pair_coeff         * * sph/taitwater/morris 0.93 100 ${visc} ${h}
pair_coeff         * * sph/taitwater/morris 0.93 100 2357.8 ${h}
pair_coeff         * * sph/taitwater/morris 0.93 100 2357.8 2
pair_coeff         * * sph/rhosum ${h}
pair_coeff         * * sph/rhosum 2



timestep    ${dt}
timestep    0.0001

# time-integrate position, velocities, internal energy and density of cbd particles
fix                integrate_slurry_fix slurry meso
# time-integrate only internal energy and density of boundary particles
fix                integrate_bc_fix bc meso/stationary

dump               dump_id all custom 10000 zs_coating_50_small.lammpstrj id type mol xs ys zs
dump_modify        dump_id first yes
dump_modify 	   dump_id sort 3

#compute thermo_temp slurry temp
#thermo_modify temp slurry
uncompute thermo_temp
compute thermo_temp slurry temp
thermo             1000
thermo_style       custom step time temp press density lx ly lz
thermo_modify      norm no

neigh_modify       every 5 delay 0 check no
variable           skin equal 0.3*${h}
variable           skin equal 0.3*2
neighbor           ${skin} bin # set Verlet list skin distance
neighbor           0.6 bin 

fix make_rigid active rigid/nvt molecule temp 30000 3000 30
3288 rigid bodies with 6576 atoms

variable g equal 9.8/1000000
fix add_gravity slurry gravity ${g} vector 0 0 -1  # Acceleration is micrometers/(microseconds)^2
fix add_gravity slurry gravity 9.8e-06 vector 0 0 -1  

variable wiggle_s equal swiggle(0,2000,10)
variable wiggle_c equal cwiggle(0,-2000,10)

#fix strong_gravity slurry addforce 0.0 0.0 -0.05

group stir_bar molecule 2
6 atoms in group stir_bar
#fix stir_the_bar stir_bar addforce v_wiggle_s 0.0 v_wiggle_c
#fix stir cbd addforce v_wiggle_s 0.0 v_wiggle_c
fix stir slurry langevin 10000000000 10000000000 10 234
#fix stir slurry nvt temp 10000000000 10000000000 10
group moving_surface molecule 1
2716 atoms in group moving_surface
#fix move_surface moving_surface move linear 0.09 0 0 # Speed is in m/s (coating speeds vary from 1/60 m/s to 10/60 m/s)

group bottom_wall type 6
288 atoms in group bottom_wall
group piston_wall type 5
780 atoms in group piston_wall

variable piston_speed equal -0.04
variable surface_speed equal abs(${piston_speed}*3)
variable surface_speed equal abs(-0.04*3)

# Stir
run 300000
WARNING: One or more atoms are time integrated more than once (../modify.cpp:271)
Neighbor list info ...
  2 neighbor list requests
  update every 5 steps, delay 0 steps, check no
  max neighbors/atom: 2000, page size: 100000
  master list distance cutoff = 2.6
  ghost atom cutoff = 2.6
  binsize = 1.3 -> bins = 347 19 185
Memory usage per processor = 3.51138 Mbytes
Step Time Temp Press Density Lx Ly Lz 
       0            0            0    1.3199298  0.060943704          450           24          240 
    1000          0.1     87429760    1.3093586  0.060943704          450           24          240 
    2000          0.2     86212138   -1.0091475  0.060943704          450           24          240 
    3000          0.3     94318276   -1.2453009  0.060943704          450           24          240 
    4000          0.4 1.0258744e+08    1.7813366  0.060943704          450           24          240 
    5000          0.5 1.1164589e+08   -1.8399636  0.060943704          450           24          240 
    6000          0.6 1.2210218e+08   0.88736992  0.060943704          450           24          240 
    7000          0.7 1.3190752e+08   -1.4740606  0.060943704          450           24          240 
    8000          0.8 1.3978156e+08   0.75549074  0.060943704          450           24          240 
    9000          0.9 1.5034523e+08    1.9639313  0.060943704          450           24          240 
   10000            1 1.5447416e+08   -1.0793814  0.060943704          450           24          240 
   11000          1.1 1.5949562e+08    1.3920833  0.060943704          450           24          240 
   12000          1.2 1.6005763e+08    1.3644561  0.060943704          450           24          240 
   13000          1.3 1.6054571e+08    1.9433503  0.060943704          450           24          240 
   14000          1.4 1.6566753e+08   -1.6617313  0.060943704          450           24          240 
   15000          1.5 1.6805517e+08   -1.1243175  0.060943704          450           24          240 
   16000          1.6 1.7018654e+08    2.2334026  0.060943704          450           24          240 
   17000          1.7 1.7188901e+08    1.9328453  0.060943704          450           24          240 
   18000          1.8 1.7642947e+08   -1.7537403  0.060943704          450           24          240 
   19000          1.9 1.7878755e+08   -2.1894347  0.060943704          450           24          240 
   20000            2 1.8269155e+08  -0.94031107  0.060943704          450           24          240 
   21000          2.1 1.8478214e+08    1.5956575  0.060943704          450           24          240 
   22000          2.2 1.8637125e+08    1.4560868  0.060943704          450           24          240 
   23000          2.3 1.8969372e+08    2.8920202  0.060943704          450           24          240 
   24000          2.4 1.9220295e+08   -1.3469425  0.060943704          450           24          240 
   25000          2.5 1.9611523e+08    3.5853665  0.060943704          450           24          240 
   26000          2.6 1.9738676e+08   0.90697291  0.060943704          450           24          240 
   27000          2.7 1.9949374e+08    1.7298254  0.060943704          450           24          240 
   28000          2.8 2.0147529e+08   0.18641098  0.060943704          450           24          240 
   29000          2.9 2.0406304e+08   0.13390454  0.060943704          450           24          240 
   30000            3 2.0755733e+08    1.1472402  0.060943704          450           24          240 
   31000          3.1 2.0921523e+08   0.49796984  0.060943704          450           24          240 
   32000          3.2 2.1020324e+08   0.35692342  0.060943704          450           24          240 
   33000          3.3 2.1284031e+08   0.57982936  0.060943704          450           24          240 
   34000          3.4 2.1355697e+08    1.9293783  0.060943704          450           24          240 
   35000          3.5 2.1696495e+08   0.94200559  0.060943704          450           24          240 
   36000          3.6 2.1689478e+08   -1.5356682  0.060943704          450           24          240 
   37000          3.7 2.1809208e+08   -2.4859422  0.060943704          450           24          240 
   38000          3.8 2.2017658e+08    2.4959896  0.060943704          450           24          240 
   39000          3.9 2.2001273e+08     0.467833  0.060943704          450           24          240 
   40000            4 2.2250304e+08  -0.81450977  0.060943704          450           24          240 
   41000          4.1 2.2309488e+08   -1.5395591  0.060943704          450           24          240 
   42000          4.2 2.2666532e+08    1.4979639  0.060943704          450           24          240 
   43000          4.3 2.2732711e+08   -0.1885307  0.060943704          450           24          240 
   44000          4.4 2.270834e+08   -0.1329253  0.060943704          450           24          240 
   45000          4.5 2.2666304e+08  -0.44366527  0.060943704          450           24          240 
   46000          4.6 2.2919399e+08    1.5576706  0.060943704          450           24          240 
   47000          4.7 2.2809189e+08  -0.10642454  0.060943704          450           24          240 
   48000          4.8 2.2913626e+08    1.0671281  0.060943704          450           24          240 
   49000          4.9 2.3152247e+08    1.3445752  0.060943704          450           24          240 
   50000            5 2.2789434e+08    2.8694237  0.060943704          450           24          240 
   51000          5.1 2.3037475e+08  -0.67102987  0.060943704          450           24          240 
   52000          5.2 2.3413918e+08    0.3897202  0.060943704          450           24          240 
   53000          5.3 2.3436647e+08   0.88446488  0.060943704          450           24          240 
   54000          5.4 2.3618957e+08   -3.4028696  0.060943704          450           24          240 
   55000          5.5 2.3619278e+08   0.18597213  0.060943704          450           24          240 
   56000          5.6 2.3725665e+08   0.98794863  0.060943704          450           24          240 
   57000          5.7 2.3822775e+08    1.6051643  0.060943704          450           24          240 
   58000          5.8 2.3822749e+08   -3.3298577  0.060943704          450           24          240 
   59000          5.9 2.3871641e+08   0.44303945  0.060943704          450           24          240 
   60000            6 2.3757546e+08  -0.46830035  0.060943704          450           24          240 
   61000          6.1 2.3623188e+08   0.83632691  0.060943704          450           24          240 
   62000          6.2 2.3600788e+08   0.23641177  0.060943704          450           24          240 
   63000          6.3 2.3611261e+08 -0.069053981  0.060943704          450           24          240 
   64000          6.4 2.388638e+08   0.47897016  0.060943704          450           24          240 
   65000          6.5 2.437188e+08  -0.03422738  0.060943704          450           24          240 
   66000          6.6 2.4183079e+08  -0.28996911  0.060943704          450           24          240 
   67000          6.7 2.4081298e+08   -2.3973787  0.060943704          450           24          240 
   68000          6.8 2.4155328e+08  -0.24230005  0.060943704          450           24          240 
   69000          6.9 2.419352e+08    1.0892715  0.060943704          450           24          240 
   70000            7 2.4123351e+08   0.67434509  0.060943704          450           24          240 
   71000          7.1 2.4429811e+08   0.51618949  0.060943704          450           24          240 
   72000          7.2 2.4326602e+08   -1.9022904  0.060943704          450           24          240 
   73000          7.3 2.4543644e+08  -0.50374373  0.060943704          450           24          240 
   74000          7.4 2.4731271e+08   0.13840946  0.060943704          450           24          240 
   75000          7.5 2.4423224e+08    1.6107856  0.060943704          450           24          240 
   76000          7.6 2.4438702e+08    2.4542405  0.060943704          450           24          240 
   77000          7.7 2.4367771e+08   -1.2248859  0.060943704          450           24          240 
   78000          7.8 2.4332147e+08   -0.3834303  0.060943704          450           24          240 
   79000          7.9 2.4426183e+08    1.5979523  0.060943704          450           24          240 
   80000            8 2.4212573e+08   -1.4584261  0.060943704          450           24          240 
   81000          8.1 2.4461152e+08   0.46012638  0.060943704          450           24          240 
   82000          8.2 2.4655646e+08 -0.073212365  0.060943704          450           24          240 
   83000          8.3 2.4783634e+08  -0.17024771  0.060943704          450           24          240 
   84000          8.4 2.4674459e+08   0.92024057  0.060943704          450           24          240 
   85000          8.5 2.4504305e+08   0.41758605  0.060943704          450           24          240 
   86000          8.6 2.4810059e+08   0.54130286  0.060943704          450           24          240 
   87000          8.7 2.4643607e+08     1.819817  0.060943704          450           24          240 
   88000          8.8 2.4338555e+08   0.18985967  0.060943704          450           24          240 
   89000          8.9 2.4325033e+08   0.70254126  0.060943704          450           24          240 
   90000            9 2.4209802e+08  -0.67719101  0.060943704          450           24          240 
   91000          9.1 2.4361795e+08     1.955273  0.060943704          450           24          240 
   92000          9.2 2.4496116e+08   -1.9324927  0.060943704          450           24          240 
   93000          9.3 2.4657421e+08   -1.9685257  0.060943704          450           24          240 
   94000          9.4 2.4581753e+08    -1.233469  0.060943704          450           24          240 
   95000          9.5 2.4483009e+08   0.63650396  0.060943704          450           24          240 
   96000          9.6 2.4138267e+08   -2.0206413  0.060943704          450           24          240 
   97000          9.7 2.4327008e+08    1.6895799  0.060943704          450           24          240 
   98000          9.8 2.4220614e+08     1.553862  0.060943704          450           24          240 
   99000          9.9 2.4455352e+08   0.21052975  0.060943704          450           24          240 
  100000           10 2.4641824e+08    -1.650526  0.060943704          450           24          240 
  101000         10.1 2.4428134e+08   0.86145336  0.060943704          450           24          240 
  102000         10.2 2.4409829e+08  -0.19447041  0.060943704          450           24          240 
  103000         10.3 2.4439926e+08   -1.5563333  0.060943704          450           24          240 
  104000         10.4 2.4445806e+08    0.3396069  0.060943704          450           24          240 
  105000         10.5 2.4646947e+08   0.16008872  0.060943704          450           24          240 
  106000         10.6 2.4764231e+08   -1.5850116  0.060943704          450           24          240 
  107000         10.7 2.4779182e+08   -1.2814959  0.060943704          450           24          240 
  108000         10.8 2.4704263e+08  0.081847711  0.060943704          450           24          240 
  109000         10.9 2.4546642e+08  0.074207007  0.060943704          450           24          240 
  110000           11 2.4667749e+08   0.68278446  0.060943704          450           24          240 
  111000         11.1 2.4719893e+08   -1.5773239  0.060943704          450           24          240 
  112000         11.2 2.4888203e+08  -0.15037404  0.060943704          450           24          240 
  113000         11.3 2.4699843e+08   -1.0753565  0.060943704          450           24          240 
  114000         11.4 2.4658373e+08   0.45276902  0.060943704          450           24          240 
  115000         11.5 2.4538459e+08   -2.7611838  0.060943704          450           24          240 
  116000         11.6 2.4673651e+08   -1.2296453  0.060943704          450           24          240 
  117000         11.7 2.4683596e+08    1.4954563  0.060943704          450           24          240 
  118000         11.8 2.4678056e+08   0.82986215  0.060943704          450           24          240 
  119000         11.9 2.4700325e+08   0.73760278  0.060943704          450           24          240 
  120000           12 2.4605502e+08  0.091178181  0.060943704          450           24          240 
  121000         12.1 2.4749671e+08   0.99983387  0.060943704          450           24          240 
  122000         12.2 2.4764096e+08  -0.23898209  0.060943704          450           24          240 
  123000         12.3 2.4423893e+08   0.37742822  0.060943704          450           24          240 
  124000         12.4 2.4751042e+08    1.4266115  0.060943704          450           24          240 
  125000         12.5 2.4627377e+08   0.62844111  0.060943704          450           24          240 
  126000         12.6 2.4779761e+08   -1.6942785  0.060943704          450           24          240 
  127000         12.7 2.4558498e+08     2.196281  0.060943704          450           24          240 
  128000         12.8 2.4699751e+08    2.7229273  0.060943704          450           24          240 
  129000         12.9 2.4504286e+08   -1.4597824  0.060943704          450           24          240 
  130000           13 2.4433047e+08   0.51432562  0.060943704          450           24          240 
  131000         13.1 2.4323606e+08 -0.055194862  0.060943704          450           24          240 
  132000         13.2 2.4295456e+08    1.0008453  0.060943704          450           24          240 
  133000         13.3 2.4493463e+08   -1.1123109  0.060943704          450           24          240 
  134000         13.4 2.4680252e+08   0.37753529  0.060943704          450           24          240 
  135000         13.5 2.5017921e+08    1.1180373  0.060943704          450           24          240 
  136000         13.6 2.4808698e+08    1.2345826  0.060943704          450           24          240 
  137000         13.7 2.4994425e+08    1.2899782  0.060943704          450           24          240 
  138000         13.8 2.5029146e+08   0.75286126  0.060943704          450           24          240 
  139000         13.9 2.4878233e+08   0.63517271  0.060943704          450           24          240 
  140000           14 2.5079939e+08    2.4018421  0.060943704          450           24          240 
  141000         14.1 2.5163421e+08   -0.4048087  0.060943704          450           24          240 
  142000         14.2 2.506217e+08    1.1211173  0.060943704          450           24          240 
  143000         14.3 2.4827903e+08    0.9730269  0.060943704          450           24          240 
  144000         14.4 2.4946661e+08    1.2603199  0.060943704          450           24          240 
  145000         14.5 2.517876e+08   0.54707314  0.060943704          450           24          240 
  146000         14.6 2.527904e+08  -0.40860427  0.060943704          450           24          240 
  147000         14.7 2.5142141e+08   -0.8676772  0.060943704          450           24          240 
  148000         14.8 2.5083748e+08    -1.374609  0.060943704          450           24          240 
  149000         14.9 2.5137406e+08   0.75913513  0.060943704          450           24          240 
  150000           15 2.5083282e+08   0.50348424  0.060943704          450           24          240 
  151000         15.1 2.5188266e+08    1.3826658  0.060943704          450           24          240 
  152000         15.2 2.5094604e+08   -2.5772658  0.060943704          450           24          240 
  153000         15.3 2.5130919e+08   0.30401524  0.060943704          450           24          240 
  154000         15.4 2.5167058e+08   -1.0888489  0.060943704          450           24          240 
  155000         15.5 2.5204296e+08    3.4716957  0.060943704          450           24          240 
  156000         15.6 2.5086995e+08   -1.0482519  0.060943704          450           24          240 
  157000         15.7 2.5058975e+08   -1.4675312  0.060943704          450           24          240 
  158000         15.8 2.4985922e+08  -0.69394645  0.060943704          450           24          240 
  159000         15.9 2.5404279e+08  -0.44582724  0.060943704          450           24          240 
  160000           16 2.5600712e+08   0.18260647  0.060943704          450           24          240 
  161000         16.1 2.5339603e+08     3.381198  0.060943704          450           24          240 
  162000         16.2 2.5263114e+08    1.8467607  0.060943704          450           24          240 
  163000         16.3 2.5070851e+08  -0.26851455  0.060943704          450           24          240 
  164000         16.4 2.5125536e+08  -0.77875045  0.060943704          450           24          240 
  165000         16.5 2.5431469e+08  -0.20700851  0.060943704          450           24          240 
  166000         16.6 2.5376629e+08    2.8878191  0.060943704          450           24          240 
  167000         16.7 2.5400497e+08    0.2950155  0.060943704          450           24          240 
  168000         16.8 2.5540037e+08      2.07357  0.060943704          450           24          240 
  169000         16.9 2.5473717e+08    2.3472088  0.060943704          450           24          240 
  170000           17 2.5434033e+08   0.37826584  0.060943704          450           24          240 
  171000         17.1 2.5182824e+08 -0.007620496  0.060943704          450           24          240 
  172000         17.2 2.5143917e+08  0.093106698  0.060943704          450           24          240 
  173000         17.3 2.5265148e+08   0.33566461  0.060943704          450           24          240 
  174000         17.4 2.5121234e+08   -1.0541738  0.060943704          450           24          240 
  175000         17.5 2.5446131e+08  -0.62613015  0.060943704          450           24          240 
  176000         17.6 2.5667905e+08     1.070479  0.060943704          450           24          240 
  177000         17.7 2.5312111e+08  -0.61329457  0.060943704          450           24          240 
  178000         17.8 2.5310423e+08    3.7421979  0.060943704          450           24          240 
  179000         17.9 2.5255786e+08   0.21658477  0.060943704          450           24          240 
  180000           18 2.5328876e+08    2.3667406  0.060943704          450           24          240 
  181000         18.1 2.5329019e+08    1.3757456  0.060943704          450           24          240 
  182000         18.2 2.5533184e+08  -0.49612417  0.060943704          450           24          240 
  183000         18.3 2.5658569e+08    1.4407403  0.060943704          450           24          240 
  184000         18.4 2.5837076e+08    1.8725143  0.060943704          450           24          240 
  185000         18.5 2.5696418e+08  -0.41766155  0.060943704          450           24          240 
  186000         18.6 2.5510959e+08     2.236158  0.060943704          450           24          240 
  187000         18.7 2.5521858e+08   -2.0713702  0.060943704          450           24          240 
  188000         18.8 2.5446409e+08    1.7281693  0.060943704          450           24          240 
  189000         18.9 2.5361698e+08    1.5237583  0.060943704          450           24          240 
  190000           19 2.5228859e+08  -0.73039436  0.060943704          450           24          240 
  191000         19.1 2.5349591e+08   -2.1410214  0.060943704          450           24          240 
  192000         19.2 2.526516e+08  -0.13906472  0.060943704          450           24          240 
  193000         19.3 2.5343468e+08    1.3734127  0.060943704          450           24          240 
  194000         19.4 2.5439152e+08  0.030312661  0.060943704          450           24          240 
  195000         19.5 2.5088012e+08    2.3674339  0.060943704          450           24          240 
  196000         19.6 2.5437785e+08   -2.0335143  0.060943704          450           24          240 
  197000         19.7 2.5366999e+08    1.9853545  0.060943704          450           24          240 
  198000         19.8 2.527763e+08    2.0754994  0.060943704          450           24          240 
  199000         19.9 2.5269276e+08    2.2413993  0.060943704          450           24          240 
  200000           20 2.5126841e+08   0.51180302  0.060943704          450           24          240 
  201000         20.1 2.5373039e+08    2.3478726  0.060943704          450           24          240 
  202000         20.2 2.5204867e+08     1.088185  0.060943704          450           24          240 
  203000         20.3 2.4980633e+08    1.7568381  0.060943704          450           24          240 
  204000         20.4 2.5019993e+08    3.7659773  0.060943704          450           24          240 
  205000         20.5 2.5234377e+08   -1.8130033  0.060943704          450           24          240 
  206000         20.6 2.5091254e+08    1.5768658  0.060943704          450           24          240 
  207000         20.7 2.5123571e+08    1.4157984  0.060943704          450           24          240 
  208000         20.8 2.5065076e+08   -1.7560548  0.060943704          450           24          240 
  209000         20.9 2.4805716e+08   0.52483881  0.060943704          450           24          240 
  210000           21 2.5022771e+08   -1.9696364  0.060943704          450           24          240 
  211000         21.1 2.4878217e+08    2.3248745  0.060943704          450           24          240 
  212000         21.2 2.5241966e+08   0.23687523  0.060943704          450           24          240 
  213000         21.3 2.5243183e+08     2.790778  0.060943704          450           24          240 
  214000         21.4 2.5362567e+08   0.47952478  0.060943704          450           24          240 
  215000         21.5 2.528021e+08   0.94397106  0.060943704          450           24          240 
  216000         21.6 2.5168607e+08     1.691985  0.060943704          450           24          240 
  217000         21.7 2.5091798e+08    2.5390542  0.060943704          450           24          240 
  218000         21.8 2.544555e+08  -0.76382307  0.060943704          450           24          240 
  219000         21.9 2.5289342e+08    2.2058594  0.060943704          450           24          240 
  220000           22 2.5333748e+08  -0.11303724  0.060943704          450           24          240 
  221000         22.1 2.512927e+08   0.27387388  0.060943704          450           24          240 
  222000         22.2 2.5377842e+08    0.2436818  0.060943704          450           24          240 
  223000         22.3 2.5320015e+08   0.65445563  0.060943704          450           24          240 
  224000         22.4 2.5212327e+08   0.62811083  0.060943704          450           24          240 
  225000         22.5 2.4769823e+08   0.64302169  0.060943704          450           24          240 
  226000         22.6 2.4607373e+08    2.4174778  0.060943704          450           24          240 
  227000         22.7 2.487889e+08   -1.1591356  0.060943704          450           24          240 
  228000         22.8 2.5051429e+08    1.3184878  0.060943704          450           24          240 
  229000         22.9 2.5253304e+08   0.43565064  0.060943704          450           24          240 
  230000           23 2.501692e+08  -0.95521889  0.060943704          450           24          240 
  231000         23.1 2.5045492e+08   0.59253362  0.060943704          450           24          240 
  232000         23.2 2.5309956e+08  -0.94878932  0.060943704          450           24          240 
  233000         23.3 2.507013e+08    1.3294858  0.060943704          450           24          240 
  234000         23.4 2.5034612e+08    2.6874092  0.060943704          450           24          240 
  235000         23.5 2.5188576e+08     0.560737  0.060943704          450           24          240 
  236000         23.6 2.5179329e+08   -1.5082601  0.060943704          450           24          240 
  237000         23.7 2.5172466e+08   -3.9089208  0.060943704          450           24          240 
  238000         23.8 2.5273562e+08   0.22314735  0.060943704          450           24          240 
  239000         23.9 2.4959519e+08   -1.6281948  0.060943704          450           24          240 
  240000           24 2.5040502e+08   0.53175027  0.060943704          450           24          240 
  241000         24.1 2.5040693e+08    1.6287607  0.060943704          450           24          240 
  242000         24.2 2.5017518e+08   -2.5364312  0.060943704          450           24          240 
  243000         24.3 2.522199e+08   0.98370467  0.060943704          450           24          240 
  244000         24.4 2.5303811e+08   0.38091095  0.060943704          450           24          240 
  245000         24.5 2.5125554e+08   0.39043367  0.060943704          450           24          240 
  246000         24.6 2.5237486e+08   -1.2209327  0.060943704          450           24          240 
  247000         24.7 2.5360814e+08    4.3325068  0.060943704          450           24          240 
  248000         24.8 2.5409915e+08   0.65242096  0.060943704          450           24          240 
  249000         24.9 2.5344826e+08    1.4006181  0.060943704          450           24          240 
  250000           25 2.5266088e+08  -0.66899607  0.060943704          450           24          240 
  251000         25.1 2.5434455e+08   -1.8387291  0.060943704          450           24          240 
  252000         25.2 2.5412283e+08     -1.49705  0.060943704          450           24          240 
  253000         25.3 2.5365521e+08    1.2772773  0.060943704          450           24          240 
  254000         25.4 2.5484372e+08    3.9516258  0.060943704          450           24          240 
  255000         25.5 2.5484648e+08      2.42485  0.060943704          450           24          240 
  256000         25.6 2.5697348e+08    1.0531863  0.060943704          450           24          240 
  257000         25.7 2.5491219e+08    1.4548352  0.060943704          450           24          240 
  258000         25.8 2.5446518e+08  -0.63882498  0.060943704          450           24          240 
  259000         25.9 2.5626935e+08   -1.2539695  0.060943704          450           24          240 
  260000           26 2.5474218e+08 -0.0043279475  0.060943704          450           24          240 
  261000         26.1 2.532328e+08   0.76039839  0.060943704          450           24          240 
  262000         26.2 2.5150206e+08  -0.51539589  0.060943704          450           24          240 
  263000         26.3 2.4978291e+08   0.42211968  0.060943704          450           24          240 
  264000         26.4 2.491547e+08  -0.31362406  0.060943704          450           24          240 
  265000         26.5 2.4773741e+08    -1.376912  0.060943704          450           24          240 
  266000         26.6 2.4676957e+08    1.6237335  0.060943704          450           24          240 
  267000         26.7 2.4825495e+08   -1.0538362  0.060943704          450           24          240 
  268000         26.8 2.5202859e+08  0.070265957  0.060943704          450           24          240 
  269000         26.9 2.5230081e+08    0.2737941  0.060943704          450           24          240 
  270000           27 2.5237607e+08   -1.7130533  0.060943704          450           24          240 
  271000         27.1 2.5405462e+08    1.0832409  0.060943704          450           24          240 
  272000         27.2 2.5295538e+08  -0.83577401  0.060943704          450           24          240 
  273000         27.3 2.5160399e+08 0.0024410586  0.060943704          450           24          240 
  274000         27.4 2.5117834e+08    1.0014052  0.060943704          450           24          240 
  275000         27.5 2.5153423e+08   -2.6915202  0.060943704          450           24          240 
  276000         27.6 2.539081e+08    3.2867507  0.060943704          450           24          240 
  277000         27.7 2.5376375e+08   -2.2839322  0.060943704          450           24          240 
  278000         27.8 2.5367531e+08  -0.63197243  0.060943704          450           24          240 
  279000         27.9 2.5512213e+08    1.2943457  0.060943704          450           24          240 
  280000           28 2.532495e+08   -1.7371325  0.060943704          450           24          240 
  281000         28.1 2.5339508e+08    2.5061446  0.060943704          450           24          240 
  282000         28.2 2.5346024e+08  -0.76450862  0.060943704          450           24          240 
  283000         28.3 2.5172138e+08    1.8599105  0.060943704          450           24          240 
  284000         28.4 2.5008692e+08  -0.85034299  0.060943704          450           24          240 
  285000         28.5 2.5285694e+08     3.409873  0.060943704          450           24          240 
  286000         28.6 2.5419533e+08     1.357159  0.060943704          450           24          240 
  287000         28.7 2.5498347e+08  -0.67987412  0.060943704          450           24          240 
  288000         28.8 2.5070571e+08  -0.86278812  0.060943704          450           24          240 
  289000         28.9 2.4976046e+08    2.6429344  0.060943704          450           24          240 
  290000           29 2.4977374e+08   0.28134306  0.060943704          450           24          240 
  291000         29.1 2.4950256e+08   -0.3802207  0.060943704          450           24          240 
  292000         29.2 2.4983069e+08   0.43758234  0.060943704          450           24          240 
  293000         29.3 2.5112714e+08  -0.36677194  0.060943704          450           24          240 
  294000         29.4 2.5037315e+08   -2.6319924  0.060943704          450           24          240 
  295000         29.5 2.5038535e+08    1.0486829  0.060943704          450           24          240 
  296000         29.6 2.527911e+08   0.98282466  0.060943704          450           24          240 
  297000         29.7 2.5079624e+08   0.43557633  0.060943704          450           24          240 
  298000         29.8 2.5016012e+08    1.6284702  0.060943704          450           24          240 
  299000         29.9 2.4912347e+08  -0.66391879  0.060943704          450           24          240 
  300000           30 2.4942768e+08   0.70527114  0.060943704          450           24          240 
Loop time of 2418.03 on 12 procs for 300000 steps with 42464 atoms

Performance: 1071948.742 ns/day, 0.000 hours/ns, 124.068 timesteps/s
99.9% CPU use with 12 MPI tasks x no OpenMP threads

MPI task timing breakdown:
Section |  min time  |  avg time  |  max time  |%varavg| %total
---------------------------------------------------------------
Pair    | 0.29204    | 405.3      | 989.19     |1818.6 | 16.76
Neigh   | 4.5703     | 228.8      | 720.12     |1990.8 |  9.46
Comm    | 41.96      | 376.16     | 1330.6     |2311.5 | 15.56
Output  | 0.95683    | 1.0335     | 1.0942     |   4.1 |  0.04
Modify  | 855.26     | 1399.1     | 2369.6     |1833.9 | 57.86
Other   |            | 7.665      |            |       |  0.32

Nlocal:    3538.67 ave 11261 max 0 min
Histogram: 6 2 0 0 0 0 0 1 2 1
Nghost:    1179.83 ave 3647 max 0 min
Histogram: 6 2 0 0 0 0 0 1 2 1
Neighs:    12284.8 ave 39429 max 0 min
Histogram: 8 0 0 0 0 0 0 1 1 2
FullNghs:  24569.5 ave 79580 max 0 min
Histogram: 8 0 0 0 0 0 0 1 1 2

Total # of neighbors = 294834
Ave neighs/atom = 6.94315
Neighbor list builds = 60000
Dangerous builds not checked


unfix stir
#unfix stir_the_bar

# Cool
#fix cool slurry langevin 300 300 10 234
#run 10000
#unfix cool

# Apply extra gravity
fix extra_gravity slurry addforce 0.0 0.0 -8.0
run 300000
WARNING: One or more atoms are time integrated more than once (../modify.cpp:271)
Memory usage per processor = 3.55799 Mbytes
Step Time Temp Press Density Lx Ly Lz 
  300000           30 2.4942768e+08   0.34321198  0.060943704          450           24          240 
  301000         30.1 1.6670069e+08    1.1822202  0.060943704          450           24          240 
  302000         30.2 1.4455008e+08    1.2232691  0.060943704          450           24          240 
  303000         30.3 1.4642038e+08    1.2611921  0.060943704          450           24          240 
  304000         30.4 1.6349527e+08    1.2907042  0.060943704          450           24          240 
  305000         30.5 1.9218685e+08     1.343987  0.060943704          450           24          240 
  306000         30.6 2.3114939e+08    1.3928337  0.060943704          450           24          240 
  307000         30.7 2.7883548e+08    1.4632071  0.060943704          450           24          240 
  308000         30.8 3.3416604e+08    1.5564026  0.060943704          450           24          240 
  309000         30.9 3.9647535e+08    1.6511726  0.060943704          450           24          240 
  310000           31 4.6510349e+08    1.7713431  0.060943704          450           24          240 
  311000         31.1 5.3951379e+08    1.8991793  0.060943704          450           24          240 
  312000         31.2 6.1951767e+08     2.011999  0.060943704          450           24          240 
  313000         31.3 7.0458288e+08    2.1990264  0.060943704          450           24          240 
  314000         31.4 7.9419191e+08    2.3444147  0.060943704          450           24          240 
  315000         31.5 8.8707207e+08    2.5028136  0.060943704          450           24          240 
  316000         31.6 9.8393784e+08    2.6659819  0.060943704          450           24          240 
  317000         31.7 1.0834741e+09    2.8804915  0.060943704          450           24          240 
  318000         31.8 1.1850378e+09    3.0824505  0.060943704          450           24          240 
  319000         31.9 1.2879427e+09    3.2726078  0.060943704          450           24          240 
  320000           32 1.3908104e+09    3.4740426  0.060943704          450           24          240 
  321000         32.1 1.4931691e+09    3.6697691  0.060943704          450           24          240 
  322000         32.2 1.5947491e+09    3.8899169  0.060943704          450           24          240 
  323000         32.3 1.6954949e+09    4.0919664  0.060943704          450           24          240 
  324000         32.4 1.793266e+09    4.3068673  0.060943704          450           24          240 
  325000         32.5 1.8899371e+09    4.5072034  0.060943704          450           24          240 
  326000         32.6 1.9846181e+09    4.7178333  0.060943704          450           24          240 
  327000         32.7  2.07587e+09    4.9301893  0.060943704          450           24          240 
  328000         32.8 2.1635308e+09    5.1559893  0.060943704          450           24          240 
  329000         32.9 2.2463655e+09    5.3194066  0.060943704          450           24          240 
  330000           33 2.3252429e+09    5.5091725  0.060943704          450           24          240 
  331000         33.1 2.4005308e+09    5.6856024  0.060943704          450           24          240 
  332000         33.2 2.4707283e+09      5.88247  0.060943704          450           24          240 
  333000         33.3 2.5359569e+09    6.0112726  0.060943704          450           24          240 
  334000         33.4 2.5956147e+09     6.127991  0.060943704          450           24          240 
  335000         33.5 2.6495351e+09    6.2938354  0.060943704          450           24          240 
  336000         33.6 2.6986195e+09    6.3944411  0.060943704          450           24          240 
  337000         33.7 2.7403933e+09    6.5387699  0.060943704          450           24          240 
  338000         33.8 2.777658e+09    6.6611765  0.060943704          450           24          240 
  339000         33.9 2.8097855e+09    6.7240029  0.060943704          450           24          240 
  340000           34 2.8375732e+09    6.8110321  0.060943704          450           24          240 
  341000         34.1 2.8602672e+09    6.8546935  0.060943704          450           24          240 
  342000         34.2 2.8785669e+09    6.9192799  0.060943704          450           24          240 
  343000         34.3 2.8907843e+09    6.9942481  0.060943704          450           24          240 
  344000         34.4 2.8992684e+09    7.0309098  0.060943704          450           24          240 
  345000         34.5 2.9034555e+09    7.0447143  0.060943704          450           24          240 
  346000         34.6 2.9044528e+09    7.1021166  0.060943704          450           24          240 
  347000         34.7 2.9020571e+09    7.1092537  0.060943704          450           24          240 
  348000         34.8 2.8955475e+09    7.1460013  0.060943704          450           24          240 
  349000         34.9 2.8874064e+09    7.1216141  0.060943704          450           24          240 
  350000           35 2.877058e+09    7.1333821  0.060943704          450           24          240 
  351000         35.1 2.8635979e+09    7.0963242  0.060943704          450           24          240 
  352000         35.2 2.8481938e+09    7.0910828  0.060943704          450           24          240 
  353000         35.3  2.83163e+09    7.0955486  0.060943704          450           24          240 
  354000         35.4 2.8131926e+09     7.067727  0.060943704          450           24          240 
  355000         35.5 2.7932454e+09    7.0349044  0.060943704          450           24          240 
  356000         35.6 2.7702792e+09    7.0148023  0.060943704          450           24          240 
  357000         35.7 2.7447445e+09    6.9921025  0.060943704          450           24          240 
  358000         35.8 2.7158442e+09    6.9221863  0.060943704          450           24          240 
  359000         35.9 2.6836161e+09     6.909696  0.060943704          450           24          240 
  360000           36 2.6502922e+09    6.8855586  0.060943704          450           24          240 
  361000         36.1 2.6153355e+09     6.845321  0.060943704          450           24          240 
  362000         36.2 2.5790384e+09    6.7832722  0.060943704          450           24          240 
  363000         36.3 2.5420958e+09    6.7235255  0.060943704          450           24          240 
  364000         36.4 2.501971e+09    6.6665094  0.060943704          450           24          240 
  365000         36.5 2.4589773e+09    6.6242443  0.060943704          450           24          240 
  366000         36.6 2.4135529e+09    6.6065167  0.060943704          450           24          240 
  367000         36.7 2.3667487e+09     6.561306  0.060943704          450           24          240 
  368000         36.8 2.3183505e+09    6.4845023  0.060943704          450           24          240 
  369000         36.9 2.2688158e+09    6.4266323  0.060943704          450           24          240 
  370000           37 2.2185792e+09    6.3868564  0.060943704          450           24          240 
  371000         37.1 2.1666566e+09    6.3614788  0.060943704          450           24          240 
  372000         37.2 2.1131129e+09    6.2784518  0.060943704          450           24          240 
  373000         37.3 2.0579246e+09    6.2193941  0.060943704          450           24          240 
  374000         37.4 2.0023695e+09    6.1578005  0.060943704          450           24          240 
  375000         37.5 1.9457477e+09    6.0693913  0.060943704          450           24          240 
  376000         37.6 1.8883816e+09    6.0212102  0.060943704          450           24          240 
  377000         37.7 1.8299143e+09    5.9576904  0.060943704          450           24          240 
  378000         37.8 1.7706908e+09    5.9296678  0.060943704          450           24          240 
  379000         37.9 1.7106637e+09    5.8666476  0.060943704          450           24          240 
  380000           38 1.6502371e+09    5.8024108  0.060943704          450           24          240 
  381000         38.1 1.5888477e+09    5.7706666  0.060943704          450           24          240 
  382000         38.2 1.5271887e+09    5.7228731  0.060943704          450           24          240 
  383000         38.3 1.4652011e+09     5.641068  0.060943704          450           24          240 
  384000         38.4  1.40194e+09    5.6178961  0.060943704          450           24          240 
  385000         38.5 1.337653e+09    5.5576107  0.060943704          450           24          240 
  386000         38.6 1.2721639e+09    5.5193749  0.060943704          450           24          240 
  387000         38.7 1.204815e+09    5.4845827  0.060943704          450           24          240 
  388000         38.8 1.1354266e+09    5.4493667  0.060943704          450           24          240 
  389000         38.9 1.0644747e+09    5.3882907  0.060943704          450           24          240 
  390000           39 9.9229211e+08     5.359165  0.060943704          450           24          240 
  391000         39.1 9.1937665e+08    5.3460496  0.060943704          450           24          240 
  392000         39.2 8.4719664e+08    5.3140131  0.060943704          450           24          240 
  393000         39.3 7.7644762e+08    5.3045598  0.060943704          450           24          240 
  394000         39.4 7.081038e+08    5.2380583  0.060943704          450           24          240 
  395000         39.5 6.4140445e+08    5.1887005  0.060943704          450           24          240 
  396000         39.6 5.776899e+08    5.1438279  0.060943704          450           24          240 
  397000         39.7 5.1815922e+08    5.0895382  0.060943704          450           24          240 
  398000         39.8 4.6214172e+08    5.0352968  0.060943704          450           24          240 
  399000         39.9 4.1101795e+08    4.9861008  0.060943704          450           24          240 
  400000           40 3.6253177e+08    4.9307752  0.060943704          450           24          240 
  401000         40.1 3.1884935e+08    4.8764464  0.060943704          450           24          240 
  402000         40.2 2.7907901e+08    4.8261742  0.060943704          450           24          240 
  403000         40.3 2.4417529e+08    4.7710714  0.060943704          450           24          240 
  404000         40.4 2.119597e+08    4.7172498  0.060943704          450           24          240 
  405000         40.5 1.8324738e+08     4.663727  0.060943704          450           24          240 
  406000         40.6 1.5808261e+08    4.6164988  0.060943704          450           24          240 
  407000         40.7 1.3592106e+08    4.5775553  0.060943704          450           24          240 
  408000         40.8 1.1734121e+08    4.5368108  0.060943704          450           24          240 
  409000         40.9 1.0150996e+08    4.4741855  0.060943704          450           24          240 
  410000           41     88016605    4.4504868  0.060943704          450           24          240 
  411000         41.1     77250957    4.4168768  0.060943704          450           24          240 
  412000         41.2     68134748    4.3526732  0.060943704          450           24          240 
  413000         41.3     59989625    4.3083618  0.060943704          450           24          240 
  414000         41.4     53624401    4.2842806  0.060943704          450           24          240 
  415000         41.5     48511866     4.221721  0.060943704          450           24          240 
  416000         41.6     44003475    4.1838281  0.060943704          450           24          240 
  417000         41.7     40316202    4.1404704  0.060943704          450           24          240 
  418000         41.8     37302318    4.0907009  0.060943704          450           24          240 
  419000         41.9     35162140    4.0307649  0.060943704          450           24          240 
  420000           42     34146844    3.9802352  0.060943704          450           24          240 
  421000         42.1     33542007    3.9390333  0.060943704          450           24          240 
  422000         42.2     32900731    3.8868125  0.060943704          450           24          240 
  423000         42.3     32236399    3.8401101  0.060943704          450           24          240 
  424000         42.4     31666314    3.7974721  0.060943704          450           24          240 
  425000         42.5     30779359    3.7465725  0.060943704          450           24          240 
  426000         42.6     30218438    3.7122381  0.060943704          450           24          240 
  427000         42.7     29775447    3.6629905  0.060943704          450           24          240 
  428000         42.8     29393871    3.6162646  0.060943704          450           24          240 
  429000         42.9     28843213    3.5794565  0.060943704          450           24          240 
  430000           43     27929156    3.5489116  0.060943704          450           24          240 
  431000         43.1     26883585    3.5235892  0.060943704          450           24          240 
  432000         43.2     26095947     3.495984  0.060943704          450           24          240 
  433000         43.3     25340163    3.4617029  0.060943704          450           24          240 
  434000         43.4     24800907    3.4329447  0.060943704          450           24          240 
  435000         43.5     24544088    3.4117126  0.060943704          450           24          240 
  436000         43.6     24457313    3.4026362  0.060943704          450           24          240 
  437000         43.7     24641920    3.3903446  0.060943704          450           24          240 
  438000         43.8     24972224    3.3767901  0.060943704          450           24          240 
  439000         43.9     25251641    3.3543411  0.060943704          450           24          240 
  440000           44     25540356    3.3471228  0.060943704          450           24          240 
  441000         44.1     26045857    3.3396051  0.060943704          450           24          240 
  442000         44.2     26418131    3.3238263  0.060943704          450           24          240 
  443000         44.3     27216759    3.3295777  0.060943704          450           24          240 
  444000         44.4     28070258    3.3219905  0.060943704          450           24          240 
  445000         44.5     28966437    3.3249305  0.060943704          450           24          240 
  446000         44.6     29774166    3.3133795  0.060943704          450           24          240 
  447000         44.7     30780561    3.3221745  0.060943704          450           24          240 
  448000         44.8     31884670    3.3298058  0.060943704          450           24          240 
  449000         44.9     32902590    3.3245423  0.060943704          450           24          240 
  450000           45     34018920     3.344013  0.060943704          450           24          240 
  451000         45.1     35200949    3.3575163  0.060943704          450           24          240 
  452000         45.2     36164868    3.3532159  0.060943704          450           24          240 
  453000         45.3     37058020    3.3822663  0.060943704          450           24          240 
  454000         45.4     37967073    3.3850205  0.060943704          450           24          240 
  455000         45.5     38739707    3.4002437  0.060943704          450           24          240 
  456000         45.6     39348206    3.4020006  0.060943704          450           24          240 
  457000         45.7     39927664    3.4203742  0.060943704          450           24          240 
  458000         45.8     40292216    3.4303959  0.060943704          450           24          240 
  459000         45.9     40563417    3.4405324  0.060943704          450           24          240 
  460000           46     40583501    3.4618384  0.060943704          450           24          240 
  461000         46.1     40596846    3.4748297  0.060943704          450           24          240 
  462000         46.2     40445283    3.4840597  0.060943704          450           24          240 
  463000         46.3     40068060    3.5050655  0.060943704          450           24          240 
  464000         46.4     39494565    3.5115098  0.060943704          450           24          240 
  465000         46.5     38679353    3.5166523  0.060943704          450           24          240 
  466000         46.6     37885606    3.5414772  0.060943704          450           24          240 
  467000         46.7     37111067    3.5533529  0.060943704          450           24          240 
  468000         46.8     36143166    3.5661432  0.060943704          450           24          240 
  469000         46.9     35137710    3.5865437  0.060943704          450           24          240 
  470000           47     34052683    3.5976754  0.060943704          450           24          240 
  471000         47.1     32747420     3.600579  0.060943704          450           24          240 
  472000         47.2     31355589    3.6082803  0.060943704          450           24          240 
  473000         47.3     29825140    3.6101773  0.060943704          450           24          240 
  474000         47.4     28366304    3.6245483  0.060943704          450           24          240 
  475000         47.5     26705477    3.6073618  0.060943704          450           24          240 
  476000         47.6     25104984    3.6285245  0.060943704          450           24          240 
  477000         47.7     23592514    3.6325759  0.060943704          450           24          240 
  478000         47.8     22100740    3.6529948  0.060943704          450           24          240 
  479000         47.9     20660840    3.6546855  0.060943704          450           24          240 
  480000           48     19058722    3.6418444  0.060943704          450           24          240 
  481000         48.1     17275936    3.6217662  0.060943704          450           24          240 
  482000         48.2     15648384    3.6348667  0.060943704          450           24          240 
  483000         48.3     14168300    3.6376197  0.060943704          450           24          240 
  484000         48.4     12816146    3.6403348  0.060943704          450           24          240 
  485000         48.5     11342268    3.6347832  0.060943704          450           24          240 
  486000         48.6     10015356    3.6377548  0.060943704          450           24          240 
  487000         48.7    8936796.5    3.6458738  0.060943704          450           24          240 
  488000         48.8    8122661.7    3.6534056  0.060943704          450           24          240 
  489000         48.9    6884911.1     3.630239  0.060943704          450           24          240 
  490000           49    5993640.5    3.6404464  0.060943704          450           24          240 
  491000         49.1    4915487.3    3.6196582  0.060943704          450           24          240 
  492000         49.2      4062668    3.6380721  0.060943704          450           24          240 
  493000         49.3    3523775.5    3.6429072  0.060943704          450           24          240 
  494000         49.4    3072478.6    3.6353142  0.060943704          450           24          240 
  495000         49.5    2678766.3    3.6395194  0.060943704          450           24          240 
  496000         49.6    2398377.6    3.6372694  0.060943704          450           24          240 
  497000         49.7    2171071.1    3.6319163  0.060943704          450           24          240 
  498000         49.8    1947390.1    3.6275948  0.060943704          450           24          240 
  499000         49.9    1777929.9    3.6230926  0.060943704          450           24          240 
  500000           50    1636422.1    3.6181584  0.060943704          450           24          240 
  501000         50.1    1512054.2    3.6115058  0.060943704          450           24          240 
  502000         50.2    1389742.4    3.6045546  0.060943704          450           24          240 
  503000         50.3    1268959.1    3.5966958  0.060943704          450           24          240 
  504000         50.4    1179718.4    3.5937243  0.060943704          450           24          240 
  505000         50.5    1115530.5    3.5896819  0.060943704          450           24          240 
  506000         50.6      1053924    3.5853621  0.060943704          450           24          240 
  507000         50.7    997228.06    3.5801874  0.060943704          450           24          240 
  508000         50.8    951470.14    3.5751058  0.060943704          450           24          240 
  509000         50.9    932814.17    3.5704601  0.060943704          450           24          240 
  510000           51     926385.2    3.5661289  0.060943704          450           24          240 
  511000         51.1     927875.2     3.561512  0.060943704          450           24          240 
  512000         51.2    916767.45    3.5568916  0.060943704          450           24          240 
  513000         51.3    908223.12    3.5532655  0.060943704          450           24          240 
  514000         51.4    906335.38    3.5483191  0.060943704          450           24          240 
  515000         51.5     920081.3    3.5445108  0.060943704          450           24          240 
  516000         51.6    945609.98    3.5410225  0.060943704          450           24          240 
  517000         51.7       950351    3.5353557  0.060943704          450           24          240 
  518000         51.8    966075.63    3.5340362  0.060943704          450           24          240 
  519000         51.9    1006402.9    3.5339698  0.060943704          450           24          240 
  520000           52    1044786.4    3.5321576  0.060943704          450           24          240 
  521000         52.1    1097502.7    3.5310962  0.060943704          450           24          240 
  522000         52.2    1147338.7    3.5259149  0.060943704          450           24          240 
  523000         52.3    1207249.6    3.5282239  0.060943704          450           24          240 
  524000         52.4    1251816.7     3.528401  0.060943704          450           24          240 
  525000         52.5    1316989.1    3.5283215  0.060943704          450           24          240 
  526000         52.6    1386625.5    3.5280617  0.060943704          450           24          240 
  527000         52.7    1457678.8    3.5279697  0.060943704          450           24          240 
  528000         52.8    1527960.8    3.5281497  0.060943704          450           24          240 
  529000         52.9      1597068    3.5286088  0.060943704          450           24          240 
  530000           53    1668352.1    3.5311632  0.060943704          450           24          240 
  531000         53.1    1734982.4     3.532652  0.060943704          450           24          240 
  532000         53.2    1793577.4    3.5347019  0.060943704          450           24          240 
  533000         53.3    1852329.1    3.5367829  0.060943704          450           24          240 
  534000         53.4    1908474.7    3.5387093  0.060943704          450           24          240 
  535000         53.5    1958121.8    3.5411547  0.060943704          450           24          240 
  536000         53.6    2002402.1    3.5444626  0.060943704          450           24          240 
  537000         53.7    2037687.9    3.5473379  0.060943704          450           24          240 
  538000         53.8    2066944.1     3.551348  0.060943704          450           24          240 
  539000         53.9    2090952.1    3.5551652  0.060943704          450           24          240 
  540000           54    2105107.4    3.5579628  0.060943704          450           24          240 
  541000         54.1    2112086.4    3.5611195  0.060943704          450           24          240 
  542000         54.2    2109731.6    3.5634001  0.060943704          450           24          240 
  543000         54.3    2101107.1    3.5675391  0.060943704          450           24          240 
  544000         54.4    2085264.1     3.571291  0.060943704          450           24          240 
  545000         54.5    2059876.5    3.5731684  0.060943704          450           24          240 
  546000         54.6    2027662.7    3.5782046  0.060943704          450           24          240 
  547000         54.7    1991431.1    3.5812804  0.060943704          450           24          240 
  548000         54.8    1948685.8    3.5840219  0.060943704          450           24          240 
  549000         54.9    1901758.8    3.5875301  0.060943704          450           24          240 
  550000           55    1850397.8    3.5906363  0.060943704          450           24          240 
  551000         55.1    1793209.2    3.5932992  0.060943704          450           24          240 
  552000         55.2    1731278.2    3.5958957  0.060943704          450           24          240 
  553000         55.3    1665580.1    3.5975179  0.060943704          450           24          240 
  554000         55.4    1599500.2    3.5998058  0.060943704          450           24          240 
  555000         55.5    1533945.9    3.6020261  0.060943704          450           24          240 
  556000         55.6    1466229.3    3.6041863  0.060943704          450           24          240 
  557000         55.7    1399419.5    3.6063199  0.060943704          450           24          240 
  558000         55.8      1333840     3.608301  0.060943704          450           24          240 
  559000         55.9    1268106.1    3.6102637  0.060943704          450           24          240 
  560000           56    1204084.5    3.6115659  0.060943704          450           24          240 
  561000         56.1    1142462.2    3.6119833  0.060943704          450           24          240 
  562000         56.2    1081181.1    3.6134631  0.060943704          450           24          240 
  563000         56.3    1023551.7    3.6147862  0.060943704          450           24          240 
  564000         56.4    968019.63    3.6148504  0.060943704          450           24          240 
  565000         56.5    916475.47    3.6157379  0.060943704          450           24          240 
  566000         56.6    869042.38    3.6167267  0.060943704          450           24          240 
  567000         56.7    824001.92    3.6174451  0.060943704          450           24          240 
  568000         56.8    782207.58    3.6179042  0.060943704          450           24          240 
  569000         56.9    740643.34    3.6170002  0.060943704          450           24          240 
  570000           57    701803.82    3.6175076  0.060943704          450           24          240 
  571000         57.1    667690.94     3.617721  0.060943704          450           24          240 
  572000         57.2    635773.88    3.6177036  0.060943704          450           24          240 
  573000         57.3    606204.45    3.6172498  0.060943704          450           24          240 
  574000         57.4    579191.55    3.6169414  0.060943704          450           24          240 
  575000         57.5    554444.17    3.6164336  0.060943704          450           24          240 
  576000         57.6    532349.66    3.6159495  0.060943704          450           24          240 
  577000         57.7    512376.26    3.6151143  0.060943704          450           24          240 
  578000         57.8    493326.36    3.6140217  0.060943704          450           24          240 
  579000         57.9    477097.74    3.6137542  0.060943704          450           24          240 
  580000           58    463442.29    3.6129559  0.060943704          450           24          240 
  581000         58.1    452236.37    3.6123332  0.060943704          450           24          240 
  582000         58.2    443793.62    3.6116455  0.060943704          450           24          240 
  583000         58.3    436045.93    3.6107903  0.060943704          450           24          240 
  584000         58.4    427555.03    3.6096115  0.060943704          450           24          240 
  585000         58.5    420356.56    3.6093315  0.060943704          450           24          240 
  586000         58.6    413704.63    3.6082403  0.060943704          450           24          240 
  587000         58.7    409860.63     3.607569  0.060943704          450           24          240 
  588000         58.8    408575.87     3.607301  0.060943704          450           24          240 
  589000         58.9    409247.51    3.6070295  0.060943704          450           24          240 
  590000           59    411444.25    3.6064685  0.060943704          450           24          240 
  591000         59.1    414511.15     3.605886  0.060943704          450           24          240 
  592000         59.2    417826.48    3.6057787  0.060943704          450           24          240 
  593000         59.3    422132.42    3.6055279  0.060943704          450           24          240 
  594000         59.4    427095.71    3.6050243  0.060943704          450           24          240 
  595000         59.5    432505.54    3.6047998  0.060943704          450           24          240 
  596000         59.6    437132.04    3.6048051  0.060943704          450           24          240 
  597000         59.7    442175.16    3.6047556  0.060943704          450           24          240 
  598000         59.8    446853.87    3.6048637  0.060943704          450           24          240 
  599000         59.9    452313.36    3.6050643  0.060943704          450           24          240 
  600000           60    458075.02    3.6053164  0.060943704          450           24          240 
Loop time of 4389.83 on 12 procs for 300000 steps with 42464 atoms

Performance: 590455.629 ns/day, 0.000 hours/ns, 68.340 timesteps/s
99.8% CPU use with 12 MPI tasks x no OpenMP threads

MPI task timing breakdown:
Section |  min time  |  avg time  |  max time  |%varavg| %total
---------------------------------------------------------------
Pair    | 0.29351    | 1118       | 2232.1     |2932.0 | 25.47
Neigh   | 4.6067     | 284.89     | 1487.4     |2885.4 |  6.49
Comm    | 63.107     | 968.46     | 3152       |3402.3 | 22.06
Output  | 0.51027    | 0.59818    | 0.63643    |   5.1 |  0.01
Modify  | 798.32     | 2010.4     | 4320.8     |3642.1 | 45.80
Other   |            | 7.435      |            |       |  0.17

Nlocal:    3538.67 ave 18559 max 0 min
Histogram: 8 2 0 0 0 0 0 0 1 1
Nghost:    1155.75 ave 5511 max 0 min
Histogram: 8 0 1 1 0 0 0 0 1 1
Neighs:    20056.2 ave 111947 max 0 min
Histogram: 8 2 0 0 0 0 0 0 1 1
FullNghs:  40112.3 ave 224905 max 0 min
Histogram: 8 2 0 0 0 0 0 0 1 1

Total # of neighbors = 481348
Ave neighs/atom = 11.3354
Neighbor list builds = 60000
Dangerous builds not checked


unfix extra_gravity

# Move piston wall to starting position
variable dz equal bound(slurry,zmax)-bound(piston_wall,zmin)+0.2
displace_atoms piston_wall move 0 0 ${dz}
displace_atoms piston_wall move 0 0 -56.4397279561855
run 1000
WARNING: One or more atoms are time integrated more than once (../modify.cpp:271)
Memory usage per processor = 7.11183 Mbytes
Step Time Temp Press Density Lx Ly Lz 
  600000           60    458075.02    6.2477923  0.060943704          450           24          240 
  601000         60.1    2255767.1    3.1978791  0.060943704          450           24          240 
Loop time of 16.6573 on 12 procs for 1000 steps with 42464 atoms

Performance: 518691.675 ns/day, 0.000 hours/ns, 60.034 timesteps/s
99.9% CPU use with 12 MPI tasks x no OpenMP threads

MPI task timing breakdown:
Section |  min time  |  avg time  |  max time  |%varavg| %total
---------------------------------------------------------------
Pair    | 0.0010455  | 4.4641     | 8.9133     | 185.4 | 26.80
Neigh   | 0.015589   | 1.0323     | 5.7601     | 189.2 |  6.20
Comm    | 0.22225    | 3.833      | 12.532     | 215.8 | 23.01
Output  | 0.00016308 | 0.00051256 | 0.00063491 |   0.7 |  0.00
Modify  | 2.4539     | 7.3023     | 16.417     | 238.5 | 43.84
Other   |            | 0.02513    |            |       |  0.15

Nlocal:    3538.67 ave 18993 max 0 min
Histogram: 8 2 0 0 0 0 0 0 1 1
Nghost:    1155.75 ave 5636 max 0 min
Histogram: 8 0 2 0 0 0 0 0 1 1
Neighs:    20071.8 ave 113013 max 0 min
Histogram: 8 2 0 0 0 0 0 0 1 1
FullNghs:  40143.7 ave 227026 max 0 min
Histogram: 8 2 0 0 0 0 0 0 1 1

Total # of neighbors = 481724
Ave neighs/atom = 11.3443
Neighbor list builds = 200
Dangerous builds not checked


# Expansion step
run 50000
WARNING: One or more atoms are time integrated more than once (../modify.cpp:271)
Memory usage per processor = 7.11183 Mbytes
Step Time Temp Press Density Lx Ly Lz 
  601000         60.1    2255767.1    3.1614117  0.060943704          450           24          240 
  602000         60.2    9928238.2    3.1974543  0.060943704          450           24          240 
  603000         60.3     22419559    3.1663872  0.060943704          450           24          240 
  604000         60.4     38587205    3.1148044  0.060943704          450           24          240 
  605000         60.5     57449048    3.0455386  0.060943704          450           24          240 
  606000         60.6     78126564    2.9649142  0.060943704          450           24          240 
  607000         60.7     99829029    2.8735871  0.060943704          450           24          240 
  608000         60.8 1.2184234e+08    2.7784801  0.060943704          450           24          240 
  609000         60.9 1.4352969e+08    2.6765906  0.060943704          450           24          240 
  610000           61 1.6431319e+08    2.5757875  0.060943704          450           24          240 
  611000         61.1 1.8375541e+08    2.4726685  0.060943704          450           24          240 
  612000         61.2 2.0148654e+08    2.3804654  0.060943704          450           24          240 
  613000         61.3 2.1707292e+08    2.2923008  0.060943704          450           24          240 
  614000         61.4 2.3024927e+08    2.2189783  0.060943704          450           24          240 
  615000         61.5 2.4082685e+08    2.1434287  0.060943704          450           24          240 
  616000         61.6 2.4862182e+08     2.071121  0.060943704          450           24          240 
  617000         61.7 2.5362386e+08    2.0238756  0.060943704          450           24          240 
  618000         61.8 2.5594041e+08    1.9792967  0.060943704          450           24          240 
  619000         61.9 2.5539605e+08    1.9631218  0.060943704          450           24          240 
  620000           62 2.5154409e+08    1.9785988  0.060943704          450           24          240 
  621000         62.1 2.4392937e+08     1.973974  0.060943704          450           24          240 
  622000         62.2 2.3287144e+08    2.0281455  0.060943704          450           24          240 
  623000         62.3 2.1955201e+08    2.0534636  0.060943704          450           24          240 
  624000         62.4 2.044447e+08    2.0963691  0.060943704          450           24          240 
  625000         62.5 1.8741041e+08    2.1251469  0.060943704          450           24          240 
  626000         62.6 1.6868343e+08    2.1598514  0.060943704          450           24          240 
  627000         62.7 1.4901673e+08    2.2037023  0.060943704          450           24          240 
  628000         62.8 1.2992564e+08    2.2362417  0.060943704          450           24          240 
  629000         62.9 1.1250019e+08    2.2332101  0.060943704          450           24          240 
  630000           63     96845728    2.2523422  0.060943704          450           24          240 
  631000         63.1     82742142    2.2768418  0.060943704          450           24          240 
  632000         63.2     70129599    2.2869171  0.060943704          450           24          240 
  633000         63.3     58882545    2.2970343  0.060943704          450           24          240 
  634000         63.4     48922330    2.2996122  0.060943704          450           24          240 
  635000         63.5     40196510    2.2954006  0.060943704          450           24          240 
  636000         63.6     32668449    2.2893527  0.060943704          450           24          240 
  637000         63.7     26265323    2.2827401  0.060943704          450           24          240 
  638000         63.8     20914727    2.2732049  0.060943704          450           24          240 
  639000         63.9     16541086    2.2602737  0.060943704          450           24          240 
  640000           64     13069309    2.2451363  0.060943704          450           24          240 
  641000         64.1     10426485    2.2286097  0.060943704          450           24          240 
  642000         64.2    8531681.2    2.2104303  0.060943704          450           24          240 
  643000         64.3    7295837.4    2.1908535  0.060943704          450           24          240 
  644000         64.4    6638625.3    2.1723698  0.060943704          450           24          240 
  645000         64.5    6481557.6    2.1529341  0.060943704          450           24          240 
  646000         64.6      6744205    2.1326028  0.060943704          450           24          240 
  647000         64.7    7348651.3    2.1127673  0.060943704          450           24          240 
  648000         64.8    8213026.9    2.0935053  0.060943704          450           24          240 
  649000         64.9    9254310.1    2.0754139  0.060943704          450           24          240 
  650000           65     10385050     2.058295  0.060943704          450           24          240 
  651000         65.1     11511467    2.0425007  0.060943704          450           24          240 
Loop time of 836.1 on 12 procs for 50000 steps with 42464 atoms

Performance: 516684.888 ns/day, 0.000 hours/ns, 59.801 timesteps/s
99.8% CPU use with 12 MPI tasks x no OpenMP threads

MPI task timing breakdown:
Section |  min time  |  avg time  |  max time  |%varavg| %total
---------------------------------------------------------------
Pair    | 0.052375   | 223.61     | 449.85     |1322.8 | 26.74
Neigh   | 0.7695     | 50.953     | 288.57     |1348.1 |  6.09
Comm    | 11.504     | 191.86     | 628.99     |1531.6 | 22.95
Output  | 0.066901   | 0.083147   | 0.088756   |   2.5 |  0.01
Modify  | 126.6      | 368.38     | 823.63     |1677.0 | 44.06
Other   |            | 1.214      |            |       |  0.15

Nlocal:    3538.67 ave 19377 max 0 min
Histogram: 8 2 0 0 0 0 0 0 1 1
Nghost:    1131.67 ave 5663 max 0 min
Histogram: 8 0 2 0 0 0 0 0 1 1
Neighs:    19729.9 ave 114143 max 0 min
Histogram: 9 1 0 0 0 0 0 0 1 1
FullNghs:  39459.8 ave 229164 max 0 min
Histogram: 9 1 0 0 0 0 0 0 1 1

Total # of neighbors = 473518
Ave neighs/atom = 11.151
Neighbor list builds = 10000
Dangerous builds not checked


# Cooling step
#fix cool slurry langevin 300 300 10 234
fix cool cbd_solvent nvt temp 3000 3000 30
run 50000
WARNING: One or more atoms are time integrated more than once (../modify.cpp:271)
Memory usage per processor = 7.14497 Mbytes
Step Time Temp Press Density Lx Ly Lz 
  651000         65.1     11511467    2.0016612  0.060943704          450           24          240 
  652000         65.2     12440482    2.1339059  0.060943704          450           24          240 
  653000         65.3     13183412    2.0259982  0.060943704          450           24          240 
  654000         65.4     13314719    1.9667103  0.060943704          450           24          240 
  655000         65.5     12853959    1.9224892  0.060943704          450           24          240 
  656000         65.6     11910874    1.8843715  0.060943704          450           24          240 
  657000         65.7     10623051    1.8515214  0.060943704          450           24          240 
  658000         65.8    9140589.2    1.8231042  0.060943704          450           24          240 
  659000         65.9    7596604.8    1.7968831  0.060943704          450           24          240 
  660000           66    6102807.2      1.77229  0.060943704          450           24          240 
  661000         66.1    4743907.5    1.7497498  0.060943704          450           24          240 
  662000         66.2    3578065.4     1.728998  0.060943704          450           24          240 
  663000         66.3    2636265.9    1.7094679  0.060943704          450           24          240 
  664000         66.4    1925179.3    1.6920066  0.060943704          450           24          240 
  665000         66.5    1435795.6    1.6774697  0.060943704          450           24          240 
  666000         66.6    1144521.1    1.6658761  0.060943704          450           24          240 
  667000         66.7    1019128.5    1.6566499  0.060943704          450           24          240 
  668000         66.8    1021063.8    1.6507441  0.060943704          450           24          240 
  669000         66.9    1112789.1    1.6480928  0.060943704          450           24          240 
  670000           67    1257880.5    1.6479341  0.060943704          450           24          240 
  671000         67.1    1423078.6    1.6504723  0.060943704          450           24          240 
  672000         67.2    1582266.2    1.6550992  0.060943704          450           24          240 
  673000         67.3    1716436.9    1.6605443  0.060943704          450           24          240 
  674000         67.4    1814591.2    1.6662841  0.060943704          450           24          240 
  675000         67.5    1868717.3    1.6726357  0.060943704          450           24          240 
  676000         67.6    1876643.1    1.6789182  0.060943704          450           24          240 
  677000         67.7    1839173.6    1.6852187  0.060943704          450           24          240 
  678000         67.8    1761257.5    1.6902939  0.060943704          450           24          240 
  679000         67.9    1648611.1    1.6946069  0.060943704          450           24          240 
  680000           68    1507580.9    1.6979329  0.060943704          450           24          240 
  681000         68.1    1347227.3    1.6998448  0.060943704          450           24          240 
  682000         68.2    1175281.2    1.7005451  0.060943704          450           24          240 
  683000         68.3    999646.66    1.6999792  0.060943704          450           24          240 
  684000         68.4    828226.73    1.6979422  0.060943704          450           24          240 
  685000         68.5    667228.91    1.6948364  0.060943704          450           24          240 
  686000         68.6    522313.58    1.6903081  0.060943704          450           24          240 
  687000         68.7    397397.57    1.6841452  0.060943704          450           24          240 
  688000         68.8    294601.52     1.677202  0.060943704          450           24          240 
  689000         68.9    214549.46    1.6695155  0.060943704          450           24          240 
  690000           69    156117.96    1.6610632  0.060943704          450           24          240 
  691000         69.1    117903.55    1.6518906  0.060943704          450           24          240 
  692000         69.2    96497.322    1.6424345  0.060943704          450           24          240 
  693000         69.3    88654.007    1.6329348  0.060943704          450           24          240 
  694000         69.4    90365.591    1.6230995  0.060943704          450           24          240 
  695000         69.5     97940.37    1.6132411  0.060943704          450           24          240 
  696000         69.6    107873.27    1.6038473  0.060943704          450           24          240 
  697000         69.7    117578.11    1.5950867  0.060943704          450           24          240 
  698000         69.8    124887.76    1.5867406  0.060943704          450           24          240 
  699000         69.9    128786.63    1.5787053  0.060943704          450           24          240 
  700000           70       128638    1.5710624  0.060943704          450           24          240 
  701000         70.1    124592.05    1.5641749  0.060943704          450           24          240 
Loop time of 861.969 on 12 procs for 50000 steps with 42464 atoms

Performance: 501178.073 ns/day, 0.000 hours/ns, 58.007 timesteps/s
99.9% CPU use with 12 MPI tasks x no OpenMP threads

MPI task timing breakdown:
Section |  min time  |  avg time  |  max time  |%varavg| %total
---------------------------------------------------------------
Pair    | 0.049424   | 225.28     | 452.08     |1326.0 | 26.14
Neigh   | 0.76434    | 50.62      | 289.2      |1355.5 |  5.87
Comm    | 12.597     | 196.64     | 635.96     |1533.5 | 22.81
Output  | 0.079071   | 0.081883   | 0.082466   |   0.4 |  0.01
Modify  | 143.37     | 388.19     | 848.41     |1651.6 | 45.04
Other   |            | 1.159      |            |       |  0.13

Nlocal:    3538.67 ave 19317 max 0 min
Histogram: 8 2 0 0 0 0 0 0 1 1
Nghost:    1135.08 ave 5633 max 0 min
Histogram: 8 0 2 0 0 0 0 0 1 1
Neighs:    19752.8 ave 113733 max 0 min
Histogram: 9 1 0 0 0 0 0 0 1 1
FullNghs:  39505.5 ave 228350 max 0 min
Histogram: 9 1 0 0 0 0 0 0 1 1

Total # of neighbors = 474066
Ave neighs/atom = 11.164
Neighbor list builds = 10000
Dangerous builds not checked


#unfix cool
# Start moving piston wall and hopper
dump_modify        dump_id every 25000
#fix push_piston piston_wall move linear 0.0 0.0 ${piston_speed}
fix push_piston piston_wall move linear ${surface_speed} 0.0 ${piston_speed}
fix push_piston piston_wall move linear 0.12 0.0 ${piston_speed}
fix push_piston piston_wall move linear 0.12 0.0 -0.04
variable z_max equal bound(piston_wall,zmax)
variable z_min equal bound(bottom_wall,zmin)
variable run_length equal abs(floor((${z_max}-${z_min}-3)/(${piston_speed}*${dt})))
variable run_length equal abs(floor((153.560272043815-${z_min}-3)/(${piston_speed}*${dt})))
variable run_length equal abs(floor((153.560272043815-60-3)/(${piston_speed}*${dt})))
variable run_length equal abs(floor((153.560272043815-60-3)/(-0.04*${dt})))
variable run_length equal abs(floor((153.560272043815-60-3)/(-0.04*0.0001)))
delete_atoms group bottom_wall
Deleted 288 atoms, new total = 42176
group walls type 4
4788 atoms in group walls
group hopper subtract walls moving_surface
2088 atoms in group hopper
fix move_hopper hopper move linear ${surface_speed} 0.0 0.0
fix move_hopper hopper move linear 0.12 0.0 0.0
print ${run_length}
print 22640069
22640069
run ${run_length}
run 22640069
WARNING: One or more atoms are time integrated more than once (../modify.cpp:271)
Memory usage per processor = 7.89497 Mbytes
Step Time Temp Press Density Lx Ly Lz 
  701000         70.1    124592.05    1.5464533   0.06053037          450           24          240 
  702000         70.2    1375618.7    1.5538796   0.06053037          450           24          240 
  703000         70.3    2824760.8    1.5304908   0.06053037          450           24          240 
  704000         70.4    4186793.8    1.5115453   0.06053037          450           24          240 
  705000         70.5    5446283.5    1.4962977   0.06053037          450           24          240 
  706000         70.6      6597875     1.484314   0.06053037          450           24          240 
  707000         70.7    7627656.7    1.4746568   0.06053037          450           24          240 
  708000         70.8    8545549.6    1.4649259   0.06053037          450           24          240 
  709000         70.9    9365166.5    1.4565777   0.06053037          450           24          240 
  710000           71     10088195    1.4491462   0.06053037          450           24          240 
  711000         71.1     10724211    1.4428658   0.06053037          450           24          240 
  712000         71.2     11291574    1.4364448   0.06053037          450           24          240 
  713000         71.3     11804717    1.4294082   0.06053037          450           24          240 
  714000         71.4     12268254    1.4226865   0.06053037          450           24          240 
  715000         71.5     12664103    1.4166084   0.06053037          450           24          240 
  716000         71.6     13025615    1.4077185   0.06053037          450           24          240 
  717000         71.7     13311603    1.3982236   0.06053037          450           24          240 
  718000         71.8     13588828    1.3887412   0.06053037          450           24          240 
  719000         71.9     13823439     1.376804   0.06053037          450           24          240 
  720000           72     13992678    1.3629872   0.06053037          450           24          240 
  721000         72.1     14112124    1.3481519   0.06053037          450           24          240 
  722000         72.2     14211824    1.3358498   0.06053037          450           24          240 
  723000         72.3     14285232    1.3218659   0.06053037          450           24          240 
  724000         72.4     14330777    1.3092559   0.06053037          450           24          240 
  725000         72.5     14362878    1.2970277   0.06053037          450           24          240 
  726000         72.6     14324412    1.2862921   0.06053037          450           24          240 
  727000         72.7     14267784    1.2765334   0.06053037          450           24          240 
  728000         72.8     14192200    1.2681252   0.06053037          450           24          240 
  729000         72.9     14107758    1.2586755   0.06053037          450           24          240 
  730000           73     14002177    1.2521687   0.06053037          450           24          240 
  731000         73.1     13897898    1.2439779   0.06053037          450           24          240 
  732000         73.2     13767921    1.2380987   0.06053037          450           24          240 
  733000         73.3     13630034    1.2300509   0.06053037          450           24          240 
  734000         73.4     13515515    1.2237617   0.06053037          450           24          240 
  735000         73.5     13415306    1.2187173   0.06053037          450           24          240 
  736000         73.6     13294555    1.2120832   0.06053037          450           24          240 
  737000         73.7     13141895    1.2066517   0.06053037          450           24          240 
  738000         73.8     12988511      1.20192   0.06053037          450           24          240 
  739000         73.9     12827369    1.1939806   0.06053037          450           24          240 
  740000           74     12666757    1.1881782   0.06053037          450           24          240 
  741000         74.1     12527095    1.1807756   0.06053037          450           24          240 
  742000         74.2     12378414    1.1749414   0.06053037          450           24          240 
  743000         74.3     12244972    1.1657956   0.06053037          450           24          240 
  744000         74.4     12109193    1.1588465   0.06053037          450           24          240 
  745000         74.5     11974329    1.1531483   0.06053037          450           24          240 
  746000         74.6     11842801    1.1459734   0.06053037          450           24          240 
  747000         74.7     11695657    1.1379684   0.06053037          450           24          240 
  748000         74.8     11559020    1.1322548   0.06053037          450           24          240 
  749000         74.9     11413972    1.1244327   0.06053037          450           24          240 
  750000           75     11273554    1.1174967   0.06053037          450           24          240 
  751000         75.1     11140024    1.1121501   0.06053037          450           24          240 
  752000         75.2     11003969    1.1045052   0.06053037          450           24          240 
  753000         75.3     10862786    1.0965604   0.06053037          450           24          240 
  754000         75.4     10716007    1.0894254   0.06053037          450           24          240 
  755000         75.5     10574523    1.0839858   0.06053037          450           24          240 
  756000         75.6     10427717    1.0777955   0.06053037          450           24          240 
  757000         75.7     10285794     1.070699   0.06053037          450           24          240 
  758000         75.8     10146698    1.0633379   0.06053037          450           24          240 
  759000         75.9     10012301    1.0551893   0.06053037          450           24          240 
  760000           76    9872033.5    1.0499799   0.06053037          450           24          240 
  761000         76.1    9731350.9    1.0430343   0.06053037          450           24          240 
  762000         76.2    9602193.6    1.0363718   0.06053037          450           24          240 
  763000         76.3    9477520.5     1.031766   0.06053037          450           24          240 
  764000         76.4    9360121.6    1.0245557   0.06053037          450           24          240 
  765000         76.5    9242362.4    1.0190335   0.06053037          450           24          240 
  766000         76.6    9128002.2    1.0138749   0.06053037          450           24          240 
  767000         76.7    9014067.4    1.0071606   0.06053037          450           24          240 
  768000         76.8    8910631.5    1.0013558   0.06053037          450           24          240 
  769000         76.9    8807203.9   0.99568957   0.06053037          450           24          240 
  770000           77    8709157.1   0.99081657   0.06053037          450           24          240 
  771000         77.1    8608305.4   0.98582972   0.06053037          450           24          240 
  772000         77.2    8512271.8   0.98133625   0.06053037          450           24          240 
  773000         77.3    8427033.4   0.97644665   0.06053037          450           24          240 
  774000         77.4    8341363.9   0.97138216   0.06053037          450           24          240 
  775000         77.5    8257506.5   0.96647385   0.06053037          450           24          240 
  776000         77.6    8185357.3   0.96187475   0.06053037          450           24          240 
  777000         77.7    8115202.6   0.95762282   0.06053037          450           24          240 
  778000         77.8    8048231.3   0.95366143   0.06053037          450           24          240 
  779000         77.9      7984435   0.94712001   0.06053037          450           24          240 
  780000           78    7922166.3   0.94153932   0.06053037          450           24          240 
  781000         78.1      7865093   0.93783653   0.06053037          450           24          240 
  782000         78.2    7809079.3   0.93365236   0.06053037          450           24          240 
  783000         78.3    7749013.5   0.92941643   0.06053037          450           24          240 
  784000         78.4    7683625.1   0.92480263   0.06053037          450           24          240 
  785000         78.5    7618402.5   0.92041645   0.06053037          450           24          240 
  786000         78.6    7554780.4   0.91493363   0.06053037          450           24          240 
  787000         78.7    7491487.6   0.91055109   0.06053037          450           24          240 
  788000         78.8    7435456.8    0.9064316   0.06053037          450           24          240 
  789000         78.9      7378792   0.90057129   0.06053037          450           24          240 
  790000           79    7324827.1   0.89685202   0.06053037          450           24          240 
  791000         79.1    7269460.2   0.89189429   0.06053037          450           24          240 
  792000         79.2      7213686   0.88709976   0.06053037          450           24          240 
  793000         79.3    7157835.5   0.88211527   0.06053037          450           24          240 
  794000         79.4    7099918.3   0.87664166   0.06053037          450           24          240 
  795000         79.5    7045991.6   0.87239695   0.06053037          450           24          240 
  796000         79.6    6991053.8   0.86836256   0.06053037          450           24          240 
  797000         79.7    6937406.9   0.86271875   0.06053037          450           24          240 
  798000         79.8    6882951.4   0.85852115   0.06053037          450           24          240 
  799000         79.9    6827550.8   0.85236848   0.06053037          450           24          240 
  800000           80    6775357.4   0.84902855   0.06053037          450           24          240 
  801000         80.1    6721796.5   0.84442767   0.06053037          450           24          240 
  802000         80.2    6668434.9   0.83887494   0.06053037          450           24          240 
  803000         80.3    6614288.7   0.83312435   0.06053037          450           24          240 
  804000         80.4      6560775   0.82853763   0.06053037          450           24          240 
  805000         80.5    6505860.2   0.82348009   0.06053037          450           24          240 
  806000         80.6    6452811.9   0.81915577   0.06053037          450           24          240 
  807000         80.7    6400706.5   0.81406231   0.06053037          450           24          240 
  808000         80.8    6350297.9   0.80895943   0.06053037          450           24          240 
  809000         80.9    6301691.4   0.80366111   0.06053037          450           24          240 
  810000           81    6253788.5   0.79946243   0.06053037          450           24          240 
  811000         81.1    6205667.4   0.79436693   0.06053037          450           24          240 
  812000         81.2    6155457.8   0.78979008   0.06053037          450           24          240 
  813000         81.3    6106519.3   0.78476631   0.06053037          450           24          240 
  814000         81.4    6060388.8   0.78033306   0.06053037          450           24          240 
  815000         81.5    6011846.4   0.77510226   0.06053037          450           24          240 
  816000         81.6    5963394.5   0.77007342   0.06053037          450           24          240 
  817000         81.7    5917175.5   0.76529432   0.06053037          450           24          240 
  818000         81.8    5872183.3   0.76132362   0.06053037          450           24          240 
  819000         81.9    5828259.2   0.75654439   0.06053037          450           24          240 
  820000           82    5785979.8   0.75102205   0.06053037          450           24          240 
  821000         82.1    5743695.4   0.74578164   0.06053037          450           24          240 
  822000         82.2    5702730.3   0.74098323   0.06053037          450           24          240 
  823000         82.3    5661042.9   0.73661721   0.06053037          450           24          240 
  824000         82.4    5620766.7   0.73230474   0.06053037          450           24          240 
  825000         82.5    5584275.3   0.72769678   0.06053037          450           24          240 
  826000         82.6    5548749.3   0.72215349   0.06053037          450           24          240 
  827000         82.7    5511162.7   0.71690334   0.06053037          450           24          240 
  828000         82.8    5474572.1   0.71255269   0.06053037          450           24          240 
  829000         82.9    5438202.3    0.7075791   0.06053037          450           24          240 
  830000           83    5403313.9   0.70198637   0.06053037          450           24          240 
  831000         83.1    5366303.9   0.69701057   0.06053037          450           24          240 
  832000         83.2    5328889.2   0.69290719   0.06053037          450           24          240 
  833000         83.3    5290767.3   0.68798664   0.06053037          450           24          240 
  834000         83.4    5253695.8    0.6818304   0.06053037          450           24          240 
  835000         83.5      5218018   0.67725857   0.06053037          450           24          240 
  836000         83.6    5184070.6   0.67196932   0.06053037          450           24          240 
  837000         83.7    5149855.2   0.66661292   0.06053037          450           24          240 
  838000         83.8    5114220.1   0.66061456   0.06053037          450           24          240 
  839000         83.9    5076749.8    0.6559266   0.06053037          450           24          240 
  840000           84    5039752.1   0.65071321   0.06053037          450           24          240 
  841000         84.1    5001652.3   0.64542211   0.06053037          450           24          240 
  842000         84.2      4962408   0.64044528   0.06053037          450           24          240 
  843000         84.3    4924337.5   0.63543946   0.06053037          450           24          240 
  844000         84.4    4883480.6   0.62993303   0.06053037          450           24          240 
  845000         84.5    4841661.8   0.62549506   0.06053037          450           24          240 
  846000         84.6    4797749.6   0.61992836   0.06053037          450           24          240 
  847000         84.7    4755455.8   0.61512786   0.06053037          450           24          240 
  848000         84.8      4713532   0.60919037   0.06053037          450           24          240 
  849000         84.9    4670110.8   0.60392825   0.06053037          450           24          240 
  850000           85    4626412.6   0.59876773   0.06053037          450           24          240 
  851000         85.1    4581861.3   0.59302109   0.06053037          450           24          240 
  852000         85.2    4537743.8   0.58758918   0.06053037          450           24          240 
  853000         85.3    4492858.8   0.58324437   0.06053037          450           24          240 
  854000         85.4    4447590.3   0.57671455   0.06053037          450           24          240 
  855000         85.5    4402102.3   0.57137504   0.06053037          450           24          240 
  856000         85.6    4355853.4   0.56656577   0.06053037          450           24          240 
  857000         85.7    4310782.2   0.56154386   0.06053037          450           24          240 
  858000         85.8    4266233.9   0.55518934   0.06053037          450           24          240 
  859000         85.9    4221903.7   0.55013767   0.06053037          450           24          240 
  860000           86    4177057.3   0.54430988   0.06053037          450           24          240 
  861000         86.1    4132669.1   0.53894827   0.06053037          450           24          240 
  862000         86.2    4089661.1   0.53405223   0.06053037          450           24          240 
  863000         86.3    4048189.9   0.52844967   0.06053037          450           24          240 
  864000         86.4    4007981.5   0.52301457   0.06053037          450           24          240 
  865000         86.5    3967614.9   0.51775471   0.06053037          450           24          240 
  866000         86.6      3928758    0.5115716   0.06053037          450           24          240 
  867000         86.7    3891166.6    0.5056882   0.06053037          450           24          240 
  868000         86.8    3854641.3   0.50011776   0.06053037          450           24          240 
  869000         86.9    3818669.6   0.49523504   0.06053037          450           24          240 
  870000           87    3783537.3   0.48973759   0.06053037          450           24          240 
  871000         87.1    3747797.3   0.48409866   0.06053037          450           24          240 
  872000         87.2    3712554.2   0.47840961   0.06053037          450           24          240 
  873000         87.3    3678684.1   0.47273381   0.06053037          450           24          240 
  874000         87.4    3645393.3   0.46688267   0.06053037          450           24          240 
  875000         87.5    3613228.4    0.4616358   0.06053037          450           24          240 
  876000         87.6    3581281.5   0.45561724   0.06053037          450           24          240 
  877000         87.7    3549887.9   0.44979535   0.06053037          450           24          240 
  878000         87.8      3520062   0.44459781   0.06053037          450           24          240 
  879000         87.9    3490661.9   0.43863256   0.06053037          450           24          240 
  880000           88    3461787.5   0.43281601   0.06053037          450           24          240 
  881000         88.1    3433698.8    0.4273162   0.06053037          450           24          240 
  882000         88.2    3406646.5   0.42205593   0.06053037          450           24          240 
  883000         88.3    3380776.1   0.41651677   0.06053037          450           24          240 
  884000         88.4    3355616.8   0.41101927   0.06053037          450           24          240 
  885000         88.5    3330934.8   0.40509664   0.06053037          450           24          240 
  886000         88.6    3306694.6   0.39965575   0.06053037          450           24          240 
  887000         88.7      3282185   0.39369193   0.06053037          450           24          240 
  888000         88.8    3258328.7   0.38814063   0.06053037          450           24          240 
  889000         88.9    3234864.1   0.38284114   0.06053037          450           24          240 
  890000           89    3211728.8    0.3773922   0.06053037          450           24          240 
  891000         89.1    3188242.7   0.37188111   0.06053037          450           24          240 
  892000         89.2    3164855.3   0.36627546   0.06053037          450           24          240 
  893000         89.3    3141820.6   0.36108601   0.06053037          450           24          240 
  894000         89.4    3118451.5    0.3556512   0.06053037          450           24          240 
  895000         89.5    3096090.7   0.34990194   0.06053037          450           24          240 
  896000         89.6    3073379.7   0.34424056   0.06053037          450           24          240 
  897000         89.7    3051686.6    0.3389743   0.06053037          450           24          240 
  898000         89.8      3029594   0.33326395   0.06053037          450           24          240 
  899000         89.9    3007916.3   0.32795111   0.06053037          450           24          240 
  900000           90    2986415.1   0.32241007   0.06053037          450           24          240 
  901000         90.1    2964639.4   0.31715251   0.06053037          450           24          240 
  902000         90.2    2942343.6   0.31161503   0.06053037          450           24          240 
  903000         90.3    2919564.5   0.30662048   0.06053037          450           24          240 
  904000         90.4    2897355.9   0.30109079   0.06053037          450           24          240 
  905000         90.5    2875475.3   0.29547688   0.06053037          450           24          240 
  906000         90.6    2853452.4   0.29000918   0.06053037          450           24          240 
  907000         90.7    2831050.8   0.28510575   0.06053037          450           24          240 
  908000         90.8      2808724   0.28015872   0.06053037          450           24          240 
  909000         90.9    2786472.3    0.2751158   0.06053037          450           24          240 
  910000           91      2764042   0.27024787   0.06053037          450           24          240 
  911000         91.1    2741180.8   0.26505455   0.06053037          450           24          240 
  912000         91.2    2718429.8   0.25984661   0.06053037          450           24          240 
  913000         91.3    2696457.7   0.25498823   0.06053037          450           24          240 
  914000         91.4    2674682.3   0.25026225   0.06053037          450           24          240 
  915000         91.5    2653234.7   0.24554539   0.06053037          450           24          240 
  916000         91.6    2631847.7   0.24061072   0.06053037          450           24          240 
  917000         91.7      2610030   0.23588477   0.06053037          450           24          240 
  918000         91.8    2589030.6   0.23108095   0.06053037          450           24          240 
  919000         91.9    2568269.2    0.2261626   0.06053037          450           24          240 
  920000           92      2547880     0.221977   0.06053037          450           24          240 
  921000         92.1      2526912   0.21733418   0.06053037          450           24          240 
  922000         92.2    2505883.6   0.21281757   0.06053037          450           24          240 
  923000         92.3    2485332.6   0.20839798   0.06053037          450           24          240 
  924000         92.4    2465453.9   0.20387026   0.06053037          450           24          240 
  925000         92.5    2445524.3   0.20003543   0.06053037          450           24          240 
  926000         92.6    2426055.4   0.19631834   0.06053037          450           24          240 
  927000         92.7    2406589.5   0.19211582   0.06053037          450           24          240 
  928000         92.8      2386750   0.18840763   0.06053037          450           24          240 
  929000         92.9    2367787.3   0.18426795   0.06053037          450           24          240 
  930000           93    2348527.4   0.17998985   0.06053037          450           24          240 
  931000         93.1    2329468.1   0.17649769   0.06053037          450           24          240 
  932000         93.2    2310740.1   0.17273991   0.06053037          450           24          240 
  933000         93.3    2292377.6   0.16944937   0.06053037          450           24          240 
  934000         93.4    2274405.5   0.16610874   0.06053037          450           24          240 
  935000         93.5    2256828.3   0.16223218   0.06053037          450           24          240 
  936000         93.6    2239241.4   0.15852868   0.06053037          450           24          240 
  937000         93.7    2222002.3   0.15542172   0.06053037          450           24          240 
  938000         93.8    2205072.8   0.15266244   0.06053037          450           24          240 
  939000         93.9    2188068.3    0.1498532   0.06053037          450           24          240 
  940000           94    2170585.5    0.1465788   0.06053037          450           24          240 
  941000         94.1      2152739   0.14351398   0.06053037          450           24          240 
  942000         94.2    2135274.3   0.14099129   0.06053037          450           24          240 
  943000         94.3    2118268.3   0.13817972   0.06053037          450           24          240 
  944000         94.4    2101348.8    0.1356877   0.06053037          450           24          240 
  945000         94.5    2084860.2    0.1339052   0.06053037          450           24          240 
  946000         94.6    2068428.2   0.13164318   0.06053037          450           24          240 
  947000         94.7    2052322.8   0.12931508   0.06053037          450           24          240 
  948000         94.8    2036569.3   0.12707269   0.06053037          450           24          240 
  949000         94.9    2021309.5   0.12490862   0.06053037          450           24          240 
  950000           95    2006930.6   0.12293235   0.06053037          450           24          240 
  951000         95.1    1992548.7   0.12136748   0.06053037          450           24          240 
  952000         95.2    1978112.1   0.11986616   0.06053037          450           24          240 
  953000         95.3    1963784.9   0.11830821   0.06053037          450           24          240 
  954000         95.4    1950184.2   0.11698077   0.06053037          450           24          240 
  955000         95.5    1936727.1   0.11582181   0.06053037          450           24          240 
  956000         95.6    1923548.6   0.11487704   0.06053037          450           24          240 
  957000         95.7    1910382.5   0.11427392   0.06053037          450           24          240 
  958000         95.8      1897101   0.11329851   0.06053037          450           24          240 
  959000         95.9      1884279    0.1125732   0.06053037          450           24          240 
  960000           96    1871266.8   0.11272467   0.06053037          450           24          240 
  961000         96.1    1858421.7    0.1127565   0.06053037          450           24          240 
  962000         96.2    1845687.9   0.11259814   0.06053037          450           24          240 
  963000         96.3    1833094.9   0.11222657   0.06053037          450           24          240 
  964000         96.4    1820710.5   0.11232741   0.06053037          450           24          240 
  965000         96.5    1808449.1   0.11269039   0.06053037          450           24          240 
  966000         96.6    1796160.3   0.11290117   0.06053037          450           24          240 
  967000         96.7    1783933.1   0.11325096   0.06053037          450           24          240 
  968000         96.8    1771632.6   0.11410187   0.06053037          450           24          240 
  969000         96.9    1759736.7   0.11446737   0.06053037          450           24          240 
  970000           97    1747743.9   0.11525801   0.06053037          450           24          240 
  971000         97.1    1735839.3    0.1161657   0.06053037          450           24          240 
  972000         97.2    1723953.5   0.11749626   0.06053037          450           24          240 
  973000         97.3      1711969   0.11847941   0.06053037          450           24          240 
  974000         97.4    1699929.8   0.11957144   0.06053037          450           24          240 
  975000         97.5    1687561.8   0.12039632   0.06053037          450           24          240 
  976000         97.6    1675528.5   0.12166313   0.06053037          450           24          240 
  977000         97.7    1663689.7   0.12323224   0.06053037          450           24          240 
  978000         97.8    1652171.1   0.12465579   0.06053037          450           24          240 
  979000         97.9    1640865.2   0.12641956   0.06053037          450           24          240 
  980000           98    1629734.1   0.12814525   0.06053037          450           24          240 
  981000         98.1    1618803.2   0.12973297   0.06053037          450           24          240 
  982000         98.2    1608187.7   0.13117738   0.06053037          450           24          240 
  983000         98.3    1597479.5   0.13297207   0.06053037          450           24          240 
  984000         98.4      1586939   0.13504716   0.06053037          450           24          240 
  985000         98.5    1576595.1   0.13739267   0.06053037          450           24          240 
  986000         98.6      1566100   0.13916659   0.06053037          450           24          240 
  987000         98.7    1555517.3   0.14115905   0.06053037          450           24          240 
  988000         98.8    1545193.9   0.14352078   0.06053037          450           24          240 
  989000         98.9    1535211.7    0.1457431   0.06053037          450           24          240 
  990000           99    1525346.7    0.1479188   0.06053037          450           24          240 
  991000         99.1    1515749.4   0.15037561   0.06053037          450           24          240 
  992000         99.2    1506174.7    0.1526676   0.06053037          450           24          240 
  993000         99.3    1496628.1   0.15470278   0.06053037          450           24          240 
  994000         99.4    1487391.5   0.15719534   0.06053037          450           24          240 
  995000         99.5    1478118.3   0.15989928   0.06053037          450           24          240 
  996000         99.6    1469051.9   0.16224066   0.06053037          450           24          240 
  997000         99.7    1459887.3   0.16465545   0.06053037          450           24          240 
  998000         99.8    1450951.8   0.16749846   0.06053037          450           24          240 
  999000         99.9    1441923.6   0.16999275   0.06053037          450           24          240 
 1000000          100    1433129.5   0.17244084   0.06053037          450           24          240 
 1001000        100.1    1424192.2   0.17520953   0.06053037          450           24          240 
 1002000        100.2    1415305.6   0.17781008   0.06053037          450           24          240 
 1003000        100.3    1406536.9   0.18056072   0.06053037          450           24          240 
 1004000        100.4    1397754.9   0.18327407   0.06053037          450           24          240 
 1005000        100.5    1389183.5   0.18616242   0.06053037          450           24          240 
 1006000        100.6    1380856.6   0.18897023   0.06053037          450           24          240 
 1007000        100.7    1372887.6     0.191759   0.06053037          450           24          240 
 1008000        100.8    1365187.2   0.19426929   0.06053037          450           24          240 
 1009000        100.9    1357371.3   0.19694428   0.06053037          450           24          240 
 1010000          101    1349705.1   0.19973537   0.06053037          450           24          240 
 1011000        101.1    1342090.3   0.20232381   0.06053037          450           24          240 
 1012000        101.2    1334453.6    0.2050825   0.06053037          450           24          240 
 1013000        101.3    1326906.8   0.20794565   0.06053037          450           24          240 
 1014000        101.4    1319328.7   0.21078354   0.06053037          450           24          240 
 1015000        101.5    1311892.5   0.21328057   0.06053037          450           24          240 
 1016000        101.6    1304525.4   0.21616301   0.06053037          450           24          240 
 1017000        101.7    1297283.5   0.21922258   0.06053037          450           24          240 
 1018000        101.8    1290416.3   0.22213628   0.06053037          450           24          240 
 1019000        101.9    1283426.9   0.22491526   0.06053037          450           24          240 
 1020000          102    1276621.9   0.22771048   0.06053037          450           24          240 
 1021000        102.1      1269835   0.23045766   0.06053037          450           24          240 
 1022000        102.2    1262970.7   0.23302022   0.06053037          450           24          240 
 1023000        102.3    1256281.8    0.2358019   0.06053037          450           24          240 
 1024000        102.4    1249541.1   0.23878202   0.06053037          450           24          240 
 1025000        102.5      1242937   0.24170399   0.06053037          450           24          240 
 1026000        102.6    1236259.7   0.24455725   0.06053037          450           24          240 
 1027000        102.7    1229632.6   0.24718247   0.06053037          450           24          240 
 1028000        102.8      1223253   0.24992324   0.06053037          450           24          240 
 1029000        102.9    1217155.9   0.25277477   0.06053037          450           24          240 
 1030000          103    1211003.1   0.25534242   0.06053037          450           24          240 
 1031000        103.1    1204743.6   0.25780578   0.06053037          450           24          240 
 1032000        103.2    1198544.6   0.26030557   0.06053037          450           24          240 
 1033000        103.3    1192276.7   0.26297139   0.06053037          450           24          240 
 1034000        103.4    1186090.3   0.26550919   0.06053037          450           24          240 
 1035000        103.5    1179982.4   0.26807558   0.06053037          450           24          240 
 1036000        103.6    1174155.2   0.27084197   0.06053037          450           24          240 
 1037000        103.7    1168427.1   0.27327742   0.06053037          450           24          240 
 1038000        103.8      1162738   0.27568345   0.06053037          450           24          240 
 1039000        103.9    1156921.8   0.27818275   0.06053037          450           24          240 
 1040000          104    1150990.5   0.28051095   0.06053037          450           24          240 
 1041000        104.1    1145302.4   0.28276816   0.06053037          450           24          240 
 1042000        104.2    1139636.9   0.28503156   0.06053037          450           24          240 
 1043000        104.3    1134119.7   0.28749459   0.06053037          450           24          240 
 1044000        104.4    1128681.6   0.28980654   0.06053037          450           24          240 
 1045000        104.5    1122935.5   0.29201088   0.06053037          450           24          240 
 1046000        104.6    1117262.7   0.29408083   0.06053037          450           24          240 
 1047000        104.7    1111713.2   0.29633876   0.06053037          450           24          240 
 1048000        104.8    1106214.2   0.29838383   0.06053037          450           24          240 
 1049000        104.9    1100688.9   0.30014232   0.06053037          450           24          240 
 1050000          105    1095170.9   0.30208822   0.06053037          450           24          240 
 1051000        105.1    1089471.9   0.30411483   0.06053037          450           24          240 
 1052000        105.2    1083867.1   0.30600266   0.06053037          450           24          240 
 1053000        105.3      1078070   0.30807184   0.06053037          450           24          240 
 1054000        105.4    1072124.4   0.30999174   0.06053037          450           24          240 
 1055000        105.5    1066154.9    0.3116157   0.06053037          450           24          240 
 1056000        105.6    1060141.8   0.31352815   0.06053037          450           24          240 
 1057000        105.7      1054209    0.3152473   0.06053037          450           24          240 
 1058000        105.8    1048116.4    0.3170524   0.06053037          450           24          240 
 1059000        105.9    1042072.4   0.31861627   0.06053037          450           24          240 
 1060000          106    1036105.4   0.32002869   0.06053037          450           24          240 
 1061000        106.1    1030215.7   0.32157042   0.06053037          450           24          240 
 1062000        106.2    1024359.3   0.32330112   0.06053037          450           24          240 
 1063000        106.3    1018440.6   0.32489884   0.06053037          450           24          240 
 1064000        106.4      1012818   0.32635978   0.06053037          450           24          240 
 1065000        106.5    1007387.8   0.32749174   0.06053037          450           24          240 
 1066000        106.6    1001969.2    0.3289288   0.06053037          450           24          240 
 1067000        106.7    996500.93    0.3303904   0.06053037          450           24          240 
 1068000        106.8    991074.02   0.33166197   0.06053037          450           24          240 
 1069000        106.9    985793.96    0.3330352   0.06053037          450           24          240 
 1070000          107    980416.47   0.33450135   0.06053037          450           24          240 
 1071000        107.1    975008.71   0.33566199   0.06053037          450           24          240 
 1072000        107.2    969590.85   0.33670086   0.06053037          450           24          240 
 1073000        107.3    964123.78   0.33754902   0.06053037          450           24          240 
 1074000        107.4    958884.82   0.33852425   0.06053037          450           24          240 
 1075000        107.5    953784.82   0.33944057   0.06053037          450           24          240 
 1076000        107.6    948727.19   0.34050008   0.06053037          450           24          240 
 1077000        107.7    943699.25   0.34147498   0.06053037          450           24          240 
 1078000        107.8    938727.65   0.34219482   0.06053037          450           24          240 
 1079000        107.9    933874.89   0.34329955   0.06053037          450           24          240 
 1080000          108    929082.87   0.34441275   0.06053037          450           24          240 
 1081000        108.1    924387.38   0.34504022   0.06053037          450           24          240 
 1082000        108.2    919641.75    0.3455403   0.06053037          450           24          240 
 1083000        108.3    914827.06   0.34631753   0.06053037          450           24          240 
 1084000        108.4    910210.99   0.34696767   0.06053037          450           24          240 
 1085000        108.5    905761.41    0.3474608   0.06053037          450           24          240 
 1086000        108.6    901542.54   0.34785852   0.06053037          450           24          240 
 1087000        108.7    897491.41   0.34835338   0.06053037          450           24          240 
 1088000        108.8    893216.81   0.34897543   0.06053037          450           24          240 
 1089000        108.9     888800.6    0.3494935   0.06053037          450           24          240 
 1090000          109    884446.57   0.34991977   0.06053037          450           24          240 
 1091000        109.1    880266.78   0.35027097   0.06053037          450           24          240 
 1092000        109.2    876122.78    0.3507297   0.06053037          450           24          240 
 1093000        109.3    872298.12   0.35101277   0.06053037          450           24          240 
 1094000        109.4    868552.42   0.35123579   0.06053037          450           24          240 
 1095000        109.5    864745.91   0.35144191   0.06053037          450           24          240 
 1096000        109.6    860933.93   0.35145238   0.06053037          450           24          240 
 1097000        109.7    857230.36   0.35163725   0.06053037          450           24          240 
 1098000        109.8     853631.7    0.3517181   0.06053037          450           24          240 
 1099000        109.9    850077.61   0.35189721   0.06053037          450           24          240 
 1100000          110    846554.57   0.35204848   0.06053037          450           24          240 
 1101000        110.1    842972.25   0.35229096   0.06053037          450           24          240 
 1102000        110.2    839348.43   0.35232381   0.06053037          450           24          240 
 1103000        110.3    835761.04   0.35206935   0.06053037          450           24          240 
 1104000        110.4    832085.24   0.35197448   0.06053037          450           24          240 
 1105000        110.5    828455.36   0.35196878   0.06053037          450           24          240 
 1106000        110.6     824882.2   0.35202269   0.06053037          450           24          240 
 1107000        110.7    821328.88     0.352011   0.06053037          450           24          240 
 1108000        110.8    817744.68   0.35193638   0.06053037          450           24          240 
 1109000        110.9    814303.19   0.35194603   0.06053037          450           24          240 
 1110000          111    810847.28    0.3518566   0.06053037          450           24          240 
 1111000        111.1    807402.28   0.35172888   0.06053037          450           24          240 
 1112000        111.2     804020.4   0.35150043   0.06053037          450           24          240 
 1113000        111.3    800661.65   0.35107934   0.06053037          450           24          240 
 1114000        111.4    797400.24   0.35080009   0.06053037          450           24          240 
 1115000        111.5    794119.63   0.35055374   0.06053037          450           24          240 
 1116000        111.6    790840.14   0.35022088   0.06053037          450           24          240 
 1117000        111.7    787727.59   0.34973614   0.06053037          450           24          240 
 1118000        111.8    784637.09   0.34952726   0.06053037          450           24          240 
 1119000        111.9    781570.53   0.34941083   0.06053037          450           24          240 
 1120000          112    778497.79   0.34925251   0.06053037          450           24          240 
 1121000        112.1    775321.45   0.34887226   0.06053037          450           24          240 
 1122000        112.2    772134.57   0.34836061   0.06053037          450           24          240 
 1123000        112.3    769099.44    0.3478699   0.06053037          450           24          240 
 1124000        112.4    766110.06   0.34749229   0.06053037          450           24          240 
 1125000        112.5    763297.12   0.34707727   0.06053037          450           24          240 
 1126000        112.6    760575.34   0.34666803   0.06053037          450           24          240 
 1127000        112.7    757907.03   0.34627203   0.06053037          450           24          240 
 1128000        112.8    755195.66   0.34575604   0.06053037          450           24          240 
 1129000        112.9    752504.54   0.34525459   0.06053037          450           24          240 
 1130000          113    749814.54   0.34483762   0.06053037          450           24          240 
 1131000        113.1    747170.02   0.34431588   0.06053037          450           24          240 
 1132000        113.2    744578.72   0.34378905   0.06053037          450           24          240 
 1133000        113.3    741957.88   0.34339345   0.06053037          450           24          240 
 1134000        113.4    739388.93   0.34302139   0.06053037          450           24          240 
 1135000        113.5    736816.94   0.34240731   0.06053037          450           24          240 
 1136000        113.6    734241.38   0.34181497   0.06053037          450           24          240 
 1137000        113.7    731809.35   0.34124791   0.06053037          450           24          240 
 1138000        113.8     729538.9   0.34072684   0.06053037          450           24          240 
 1139000        113.9    727244.34   0.34025469   0.06053037          450           24          240 
 1140000          114    724913.02   0.33967053   0.06053037          450           24          240 
 1141000        114.1    722571.19    0.3391012   0.06053037          450           24          240 
 1142000        114.2    720281.98   0.33848703   0.06053037          450           24          240 
 1143000        114.3    717911.37   0.33809427   0.06053037          450           24          240 
 1144000        114.4    715567.42   0.33777023   0.06053037          450           24          240 
 1145000        114.5    713309.25   0.33715432   0.06053037          450           24          240 
 1146000        114.6    711121.22   0.33642479   0.06053037          450           24          240 
 1147000        114.7    708925.86   0.33587166   0.06053037          450           24          240 
 1148000        114.8    706761.93   0.33532985   0.06053037          450           24          240 
 1149000        114.9    704647.35   0.33483665   0.06053037          450           24          240 
 1150000          115    702623.97   0.33432354   0.06053037          450           24          240 
 1151000        115.1     700677.1    0.3338406   0.06053037          450           24          240 
 1152000        115.2    698687.62   0.33331456   0.06053037          450           24          240 
 1153000        115.3    696734.56   0.33274599   0.06053037          450           24          240 
 1154000        115.4    694831.84   0.33224814   0.06053037          450           24          240 
 1155000        115.5    692906.92   0.33176197   0.06053037          450           24          240 
 1156000        115.6     691014.2   0.33112806   0.06053037          450           24          240 
 1157000        115.7    689143.42   0.33065113   0.06053037          450           24          240 
 1158000        115.8    687307.13   0.33018774   0.06053037          450           24          240 
 1159000        115.9    685422.59   0.32977285   0.06053037          450           24          240 
 1160000          116    683634.97   0.32946106   0.06053037          450           24          240 
 1161000        116.1    681845.61   0.32892931   0.06053037          450           24          240 
 1162000        116.2    680098.46   0.32830503   0.06053037          450           24          240 
 1163000        116.3    678396.22   0.32784322   0.06053037          450           24          240 
 1164000        116.4    676711.32   0.32727584   0.06053037          450           24          240 
 1165000        116.5    675102.48   0.32674964   0.06053037          450           24          240 
 1166000        116.6    673558.19   0.32614211   0.06053037          450           24          240 
 1167000        116.7    672089.46    0.3257235   0.06053037          450           24          240 
 1168000        116.8    670628.99   0.32527077   0.06053037          450           24          240 
 1169000        116.9    669233.44   0.32477901   0.06053037          450           24          240 
 1170000          117    667848.14   0.32444033   0.06053037          450           24          240 
 1171000        117.1    666463.06   0.32416419   0.06053037          450           24          240 
 1172000        117.2     665144.2   0.32368043   0.06053037          450           24          240 
 1173000        117.3    663769.22   0.32321672   0.06053037          450           24          240 
 1174000        117.4    662422.18   0.32289443   0.06053037          450           24          240 
 1175000        117.5    661051.05   0.32252042   0.06053037          450           24          240 
 1176000        117.6    659585.68   0.32215492   0.06053037          450           24          240 
 1177000        117.7    658123.18   0.32185023   0.06053037          450           24          240 
 1178000        117.8     656732.5   0.32160912   0.06053037          450           24          240 
 1179000        117.9    655310.91   0.32128041   0.06053037          450           24          240 
 1180000          118    653927.26    0.3209179   0.06053037          450           24          240 
 1181000        118.1    652488.69   0.32057353   0.06053037          450           24          240 
 1182000        118.2     651054.5   0.32025385   0.06053037          450           24          240 
 1183000        118.3    649628.56   0.32007767   0.06053037          450           24          240 
 1184000        118.4    648225.53   0.31973932   0.06053037          450           24          240 
 1185000        118.5    646940.23   0.31924907   0.06053037          450           24          240 
 1186000        118.6    645648.09   0.31912467   0.06053037          450           24          240 
 1187000        118.7    644373.09   0.31891497   0.06053037          450           24          240 
 1188000        118.8    643141.73   0.31841497   0.06053037          450           24          240 
 1189000        118.9    641915.76    0.3181581   0.06053037          450           24          240 
 1190000          119    640709.56   0.31817252   0.06053037          450           24          240 
 1191000        119.1    639554.83   0.31797114   0.06053037          450           24          240 
 1192000        119.2    638443.56   0.31778344   0.06053037          450           24          240 
 1193000        119.3    637357.06   0.31757349   0.06053037          450           24          240 
 1194000        119.4    636274.56   0.31734265   0.06053037          450           24          240 
 1195000        119.5    635233.02   0.31708599   0.06053037          450           24          240 
 1196000        119.6    634239.17   0.31703436   0.06053037          450           24          240 
 1197000        119.7    633253.18   0.31716478   0.06053037          450           24          240 
 1198000        119.8    632190.41   0.31694137   0.06053037          450           24          240 
 1199000        119.9    631126.83    0.3166777   0.06053037          450           24          240 
 1200000          120    630103.75    0.3165863   0.06053037          450           24          240 
 1201000        120.1    629105.46    0.3164404   0.06053037          450           24          240 
 1202000        120.2    628067.55   0.31639763   0.06053037          450           24          240 
 1203000        120.3    627098.77   0.31647538   0.06053037          450           24          240 
 1204000        120.4    626171.22   0.31640681   0.06053037          450           24          240 
 1205000        120.5    625188.29   0.31630083   0.06053037          450           24          240 
 1206000        120.6     624212.2    0.3164032   0.06053037          450           24          240 
 1207000        120.7    623273.65   0.31652455   0.06053037          450           24          240 
 1208000        120.8    622452.28   0.31661731   0.06053037          450           24          240 
 1209000        120.9    621620.14    0.3167115   0.06053037          450           24          240 
 1210000          121    620799.82   0.31669873   0.06053037          450           24          240 
 1211000        121.1    620003.02   0.31654534   0.06053037          450           24          240 
 1212000        121.2    619212.01   0.31663891   0.06053037          450           24          240 
 1213000        121.3    618502.94   0.31684905   0.06053037          450           24          240 
 1214000        121.4    617755.34   0.31694415   0.06053037          450           24          240 
 1215000        121.5    616993.77   0.31702604   0.06053037          450           24          240 
 1216000        121.6    616222.24   0.31717009   0.06053037          450           24          240 
 1217000        121.7    615470.31   0.31734893   0.06053037          450           24          240 
 1218000        121.8    614734.68   0.31750636   0.06053037          450           24          240 
 1219000        121.9    614003.34   0.31765393   0.06053037          450           24          240 
 1220000          122    613275.84   0.31779476   0.06053037          450           24          240 
 1221000        122.1    612516.95   0.31790495   0.06053037          450           24          240 
 1222000        122.2    611769.79   0.31815097   0.06053037          450           24          240 
 1223000        122.3    611018.31   0.31839483   0.06053037          450           24          240 
 1224000        122.4    610263.61   0.31868339   0.06053037          450           24          240 
 1225000        122.5    609565.27   0.31897599   0.06053037          450           24          240 
 1226000        122.6    608846.05   0.31921121   0.06053037          450           24          240 
 1227000        122.7    608187.34   0.31930169   0.06053037          450           24          240 
 1228000        122.8    607602.88    0.3195292   0.06053037          450           24          240 
 1229000        122.9    607025.15   0.31986701   0.06053037          450           24          240 
 1230000          123    606406.14   0.32013107   0.06053037          450           24          240 
 1231000        123.1    605837.98   0.32044557   0.06053037          450           24          240 
 1232000        123.2    605309.78   0.32070004   0.06053037          450           24          240 
 1233000        123.3     604734.8    0.3210085   0.06053037          450           24          240 
 1234000        123.4     604220.1   0.32128263   0.06053037          450           24          240 
 1235000        123.5    603595.89   0.32159203   0.06053037          450           24          240 
 1236000        123.6    602972.51    0.3219994   0.06053037          450           24          240 
 1237000        123.7    602339.76   0.32242281   0.06053037          450           24          240 
 1238000        123.8    601592.78   0.32277269   0.06053037          450           24          240 
 1239000        123.9    600846.41   0.32306999   0.06053037          450           24          240 
 1240000          124    600099.91    0.3234847   0.06053037          450           24          240 
 1241000        124.1    599395.18   0.32393316   0.06053037          450           24          240 
 1242000        124.2     598741.3   0.32429168   0.06053037          450           24          240 
 1243000        124.3    598100.43   0.32453808   0.06053037          450           24          240 
 1244000        124.4    597435.02   0.32477174   0.06053037          450           24          240 
 1245000        124.5    596763.77   0.32525024   0.06053037          450           24          240 
 1246000        124.6    596086.34   0.32568242   0.06053037          450           24          240 
 1247000        124.7    595412.52   0.32609798   0.06053037          450           24          240 
 1248000        124.8    594762.28   0.32646914   0.06053037          450           24          240 
 1249000        124.9     594111.8   0.32687101   0.06053037          450           24          240 
 1250000          125    593550.99   0.32726138   0.06053037          450           24          240 
 1251000        125.1    593022.12   0.32776334   0.06053037          450           24          240 
 1252000        125.2    592489.06   0.32819798   0.06053037          450           24          240 
 1253000        125.3    592014.84   0.32855471   0.06053037          450           24          240 
 1254000        125.4    591588.18   0.32907707   0.06053037          450           24          240 
 1255000        125.5    591121.51   0.32945942   0.06053037          450           24          240 
 1256000        125.6    590673.44   0.32986369   0.06053037          450           24          240 
 1257000        125.7    590227.97   0.33041681   0.06053037          450           24          240 
 1258000        125.8    589714.27   0.33081236   0.06053037          450           24          240 
 1259000        125.9    589142.38   0.33123558   0.06053037          450           24          240 
 1260000          126    588544.28   0.33172461   0.06053037          450           24          240 
 1261000        126.1    587941.48   0.33214348   0.06053037          450           24          240 
 1262000        126.2    587370.64   0.33236499   0.06053037          450           24          240 
 1263000        126.3    586762.36   0.33271755   0.06053037          450           24          240 
 1264000        126.4    586191.86   0.33335773   0.06053037          450           24          240 
 1265000        126.5     585592.2   0.33385635   0.06053037          450           24          240 
 1266000        126.6    584963.57   0.33409733   0.06053037          450           24          240 
 1267000        126.7    584369.66   0.33445655   0.06053037          450           24          240 
 1268000        126.8    583788.59   0.33489629   0.06053037          450           24          240 
 1269000        126.9    583168.77   0.33525758   0.06053037          450           24          240 
 1270000          127    582529.91   0.33555612   0.06053037          450           24          240 
 1271000        127.1    581976.07   0.33605012   0.06053037          450           24          240 
 1272000        127.2    581401.62    0.3364576   0.06053037          450           24          240 
 1273000        127.3    580822.89   0.33672906   0.06053037          450           24          240 
 1274000        127.4    580232.22   0.33699885   0.06053037          450           24          240 
 1275000        127.5    579695.24   0.33732421   0.06053037          450           24          240 
 1276000        127.6       579070    0.3376628   0.06053037          450           24          240 
 1277000        127.7    578474.78   0.33793451   0.06053037          450           24          240 
 1278000        127.8    577873.32    0.3382343   0.06053037          450           24          240 
 1279000        127.9     577246.4    0.3385357   0.06053037          450           24          240 
 1280000          128    576687.12   0.33878818   0.06053037          450           24          240 
 1281000        128.1    576190.54   0.33897863   0.06053037          450           24          240 
 1282000        128.2    575701.14   0.33922717   0.06053037          450           24          240 
 1283000        128.3    575193.23   0.33940394   0.06053037          450           24          240 
 1284000        128.4    574741.82   0.33954626   0.06053037          450           24          240 
 1285000        128.5    574289.75     0.339764   0.06053037          450           24          240 
 1286000        128.6    573824.56    0.3399937   0.06053037          450           24          240 
 1287000        128.7    573378.94   0.34017783   0.06053037          450           24          240 
 1288000        128.8     573026.5   0.34031043   0.06053037          450           24          240 
 1289000        128.9    572647.37   0.34036902   0.06053037          450           24          240 
 1290000          129    572208.13    0.3403869   0.06053037          450           24          240 
 1291000        129.1    571803.14   0.34046692   0.06053037          450           24          240 
 1292000        129.2    571347.39   0.34062813   0.06053037          450           24          240 
 1293000        129.3    570869.47    0.3407227   0.06053037          450           24          240 
 1294000        129.4    570426.04   0.34074391   0.06053037          450           24          240 
 1295000        129.5    569949.34   0.34064513   0.06053037          450           24          240 
 1296000        129.6    569448.23   0.34048865   0.06053037          450           24          240 
 1297000        129.7    568952.82   0.34039658   0.06053037          450           24          240 
 1298000        129.8    568498.04   0.34049621   0.06053037          450           24          240 
 1299000        129.9    568082.19   0.34044221   0.06053037          450           24          240 
 1300000          130    567642.64   0.34021951   0.06053037          450           24          240 
 1301000        130.1    567259.62   0.34004769   0.06053037          450           24          240 
 1302000        130.2    566850.63   0.33986893   0.06053037          450           24          240 
 1303000        130.3    566521.85   0.33966296   0.06053037          450           24          240 
 1304000        130.4    566220.67   0.33937873   0.06053037          450           24          240 
 1305000        130.5     566026.4   0.33903106   0.06053037          450           24          240 
 1306000        130.6    565903.64   0.33863184   0.06053037          450           24          240 
 1307000        130.7    565789.24   0.33833777   0.06053037          450           24          240 
 1308000        130.8    565755.21   0.33801198   0.06053037          450           24          240 
 1309000        130.9    565681.17    0.3375732   0.06053037          450           24          240 
 1310000          131     565674.3   0.33705896   0.06053037          450           24          240 
 1311000        131.1    565688.93   0.33642681   0.06053037          450           24          240 
 1312000        131.2    565630.67   0.33571206   0.06053037          450           24          240 
 1313000        131.3    565661.38   0.33514852   0.06053037          450           24          240 
 1314000        131.4    565761.02   0.33472673   0.06053037          450           24          240 
 1315000        131.5    565848.29   0.33418264   0.06053037          450           24          240 
 1316000        131.6    565831.68   0.33339815   0.06053037          450           24          240 
 1317000        131.7    565777.74   0.33255624   0.06053037          450           24          240 
 1318000        131.8    565713.54   0.33177295   0.06053037          450           24          240 
 1319000        131.9    565701.99   0.33097035   0.06053037          450           24          240 
 1320000          132    565681.78   0.33024614   0.06053037          450           24          240 
 1321000        132.1    565658.74   0.32932719   0.06053037          450           24          240 
 1322000        132.2    565696.01   0.32825072   0.06053037          450           24          240 
 1323000        132.3    565703.62   0.32731712   0.06053037          450           24          240 
 1324000        132.4    565735.52   0.32639924   0.06053037          450           24          240 
 1325000        132.5    565722.57   0.32533009   0.06053037          450           24          240 
 1326000        132.6    565695.02   0.32422208   0.06053037          450           24          240 
 1327000        132.7    565680.27   0.32308002   0.06053037          450           24          240 
 1328000        132.8    565662.51   0.32185569   0.06053037          450           24          240 
 1329000        132.9    565634.34   0.32066099   0.06053037          450           24          240 
 1330000          133    565614.83   0.31955202   0.06053037          450           24          240 
 1331000        133.1    565617.99   0.31837019   0.06053037          450           24          240 
 1332000        133.2    565635.15    0.3169284   0.06053037          450           24          240 
 1333000        133.3    565644.53   0.31545909   0.06053037          450           24          240 
 1334000        133.4     565659.9   0.31401601   0.06053037          450           24          240 
 1335000        133.5     565643.1    0.3125422   0.06053037          450           24          240 
 1336000        133.6    565573.97    0.3111107   0.06053037          450           24          240 
 1337000        133.7    565532.93   0.30954126   0.06053037          450           24          240 
 1338000        133.8    565537.11   0.30785669   0.06053037          450           24          240 
 1339000        133.9    565562.53   0.30610144   0.06053037          450           24          240 
 1340000          134    565567.98   0.30443601   0.06053037          450           24          240 
 1341000        134.1    565557.43   0.30275869   0.06053037          450           24          240 
 1342000        134.2    565503.36   0.30099745   0.06053037          450           24          240 
 1343000        134.3    565486.56   0.29926077   0.06053037          450           24          240 
 1344000        134.4     565451.9   0.29739174   0.06053037          450           24          240 
 1345000        134.5    565407.39   0.29527616   0.06053037          450           24          240 
 1346000        134.6    565347.17   0.29315777   0.06053037          450           24          240 
 1347000        134.7    565356.95   0.29116422   0.06053037          450           24          240 
 1348000        134.8    565426.79    0.2890789   0.06053037          450           24          240 
 1349000        134.9     565489.7   0.28700398   0.06053037          450           24          240 
 1350000          135    565501.14   0.28493043   0.06053037          450           24          240 
 1351000        135.1    565541.41   0.28269197   0.06053037          450           24          240 
 1352000        135.2    565693.51   0.28030335   0.06053037          450           24          240 
 1353000        135.3    565780.58   0.27796382   0.06053037          450           24          240 
 1354000        135.4    565879.42   0.27570351   0.06053037          450           24          240 
 1355000        135.5    565967.03   0.27330547   0.06053037          450           24          240 
 1356000        135.6    566019.01   0.27071166   0.06053037          450           24          240 
 1357000        135.7    565990.64   0.26823326   0.06053037          450           24          240 
 1358000        135.8    565956.92   0.26579916   0.06053037          450           24          240 
 1359000        135.9    565981.11   0.26320196   0.06053037          450           24          240 
 1360000          136    565986.33   0.26059713   0.06053037          450           24          240 
 1361000        136.1    566006.15   0.25791776   0.06053037          450           24          240 
 1362000        136.2    566045.72   0.25521684   0.06053037          450           24          240 
 1363000        136.3    566072.14   0.25247254   0.06053037          450           24          240 
 1364000        136.4    566060.57   0.24974149   0.06053037          450           24          240 
 1365000        136.5     566074.2   0.24695915   0.06053037          450           24          240 
 1366000        136.6    566068.34   0.24398699   0.06053037          450           24          240 
 1367000        136.7    566010.12   0.24106677   0.06053037          450           24          240 
 1368000        136.8    565976.29   0.23826164   0.06053037          450           24          240 
 1369000        136.9    565961.65   0.23535667   0.06053037          450           24          240 
 1370000          137    565947.23   0.23241261   0.06053037          450           24          240 
 1371000        137.1    565984.06   0.22936432   0.06053037          450           24          240 
 1372000        137.2    566014.15   0.22620556   0.06053037          450           24          240 
 1373000        137.3    566076.02   0.22321946   0.06053037          450           24          240 
 1374000        137.4    566074.79   0.22014979   0.06053037          450           24          240 
 1375000        137.5     566033.1   0.21687554   0.06053037          450           24          240 
 1376000        137.6     566007.1   0.21375539   0.06053037          450           24          240 
 1377000        137.7    565913.44   0.21053873   0.06053037          450           24          240 
 1378000        137.8    565851.48   0.20725783   0.06053037          450           24          240 
 1379000        137.9    565783.89   0.20400553   0.06053037          450           24          240 
 1380000          138    565703.47   0.20084274   0.06053037          450           24          240 
 1381000        138.1    565714.41    0.1975406   0.06053037          450           24          240 
 1382000        138.2    565735.25   0.19426777   0.06053037          450           24          240 
 1383000        138.3    565777.72   0.19098443   0.06053037          450           24          240 
 1384000        138.4    565833.17   0.18766291   0.06053037          450           24          240 
 1385000        138.5    565878.62   0.18428059   0.06053037          450           24          240 
 1386000        138.6    565900.82    0.1808824   0.06053037          450           24          240 
 1387000        138.7     565877.6   0.17748474   0.06053037          450           24          240 
 1388000        138.8    565934.72   0.17405918   0.06053037          450           24          240 
 1389000        138.9    565979.38   0.17069911   0.06053037          450           24          240 
 1390000          139    565975.17   0.16728407   0.06053037          450           24          240 
 1391000        139.1    565965.22   0.16383692   0.06053037          450           24          240 
 1392000        139.2    565976.78   0.16041791   0.06053037          450           24          240 
 1393000        139.3    565986.93   0.15704567   0.06053037          450           24          240 
 1394000        139.4    566017.96    0.1537342   0.06053037          450           24          240 
 1395000        139.5    566013.36    0.1503877   0.06053037          450           24          240 
 1396000        139.6    565986.83   0.14693514   0.06053037          450           24          240 
 1397000        139.7    566007.17   0.14348438   0.06053037          450           24          240 
 1398000        139.8    566024.92   0.14014237   0.06053037          450           24          240 
 1399000        139.9    565999.62   0.13679883   0.06053037          450           24          240 
 1400000          140    565981.25   0.13348473   0.06053037          450           24          240 
 1401000        140.1    566028.39   0.13003273   0.06053037          450           24          240 
 1402000        140.2    566090.38   0.12657927   0.06053037          450           24          240 
 1403000        140.3    566108.34    0.1233195   0.06053037          450           24          240 
 1404000        140.4    566144.19   0.12005371   0.06053037          450           24          240 
 1405000        140.5    566186.42   0.11681046   0.06053037          450           24          240 
 1406000        140.6    566230.29   0.11352377   0.06053037          450           24          240 
 1407000        140.7    566259.39    0.1102331   0.06053037          450           24          240 
 1408000        140.8    566255.92    0.1069937   0.06053037          450           24          240 
 1409000        140.9    566255.45   0.10386018   0.06053037          450           24          240 
 1410000          141    566232.15   0.10076892   0.06053037          450           24          240 
 1411000        141.1    566220.33  0.097602823   0.06053037          450           24          240 
 1412000        141.2    566259.51  0.094408829   0.06053037          450           24          240 
 1413000        141.3    566346.27  0.091318206   0.06053037          450           24          240 
 1414000        141.4    566462.79  0.088375121   0.06053037          450           24          240 
 1415000        141.5    566572.72  0.085380734   0.06053037          450           24          240 
 1416000        141.6    566737.72   0.08253092   0.06053037          450           24          240 
 1417000        141.7    566886.44  0.079786637   0.06053037          450           24          240 
 1418000        141.8    566997.11  0.076919236   0.06053037          450           24          240 
 1419000        141.9    567025.76  0.074032102   0.06053037          450           24          240 
 1420000          142    567058.65   0.07136279   0.06053037          450           24          240 
 1421000        142.1    567139.45  0.068670448   0.06053037          450           24          240 
 1422000        142.2    567226.99  0.065966947   0.06053037          450           24          240 
 1423000        142.3     567372.6  0.063551579   0.06053037          450           24          240 
 1424000        142.4    567547.58  0.061134044   0.06053037          450           24          240 
 1425000        142.5    567686.96  0.058742366   0.06053037          450           24          240 
 1426000        142.6       567814   0.05635833   0.06053037          450           24          240 
 1427000        142.7    567922.96  0.053906312   0.06053037          450           24          240 
 1428000        142.8    568028.51  0.051639141   0.06053037          450           24          240 
 1429000        142.9    568129.33   0.04952182   0.06053037          450           24          240 
 1430000          143    568168.52   0.04746652   0.06053037          450           24          240 
 1431000        143.1    568258.32  0.045528606   0.06053037          450           24          240 
 1432000        143.2    568367.98    0.0436552   0.06053037          450           24          240 
 1433000        143.3    568539.18  0.041894761   0.06053037          450           24          240 
 1434000        143.4    568667.75   0.04011813   0.06053037          450           24          240 
 1435000        143.5    568787.34  0.038383019   0.06053037          450           24          240 
 1436000        143.6    568954.64  0.036762654   0.06053037          450           24          240 
 1437000        143.7    569072.84    0.0352461   0.06053037          450           24          240 
 1438000        143.8    569195.31  0.033858084   0.06053037          450           24          240 
 1439000        143.9    569269.37  0.032560436   0.06053037          450           24          240 
 1440000          144    569353.11  0.031291639   0.06053037          450           24          240 
 1441000        144.1     569409.2  0.030101693   0.06053037          450           24          240 
 1442000        144.2    569513.26  0.029075173   0.06053037          450           24          240 
 1443000        144.3    569584.56  0.028221506   0.06053037          450           24          240 
 1444000        144.4    569634.16  0.027330663   0.06053037          450           24          240 
 1445000        144.5     569690.9  0.026561682   0.06053037          450           24          240 
 1446000        144.6    569745.89  0.025990851   0.06053037          450           24          240 
 1447000        144.7    569706.08  0.025622442   0.06053037          450           24          240 
 1448000        144.8    569687.36  0.025363728   0.06053037          450           24          240 
 1449000        144.9    569662.54     0.025148   0.06053037          450           24          240 
 1450000          145    569624.32  0.025116536   0.06053037          450           24          240 
 1451000        145.1    569586.49  0.025326114   0.06053037          450           24          240 
 1452000        145.2    569582.49  0.025579242   0.06053037          450           24          240 
 1453000        145.3     569570.3  0.025946248   0.06053037          450           24          240 
 1454000        145.4    569583.07  0.026501365   0.06053037          450           24          240 
 1455000        145.5    569641.06  0.027191995   0.06053037          450           24          240 
 1456000        145.6    569726.69  0.028036096   0.06053037          450           24          240 
 1457000        145.7    569842.56  0.029082946   0.06053037          450           24          240 
 1458000        145.8    569932.42  0.030143357   0.06053037          450           24          240 
 1459000        145.9    569997.13  0.031218254   0.06053037          450           24          240 
 1460000          146    570068.14  0.032434153   0.06053037          450           24          240 
 1461000        146.1    570121.46  0.033731532   0.06053037          450           24          240 
 1462000        146.2    570093.31  0.035162834   0.06053037          450           24          240 
 1463000        146.3    570073.38  0.036659745   0.06053037          450           24          240 
 1464000        146.4    570058.05  0.038228665   0.06053037          450           24          240 
 1465000        146.5    570116.87  0.039935366   0.06053037          450           24          240 
 1466000        146.6    570174.57  0.041759931   0.06053037          450           24          240 
 1467000        146.7    570257.96  0.043621523   0.06053037          450           24          240 
 1468000        146.8    570290.14  0.045470571   0.06053037          450           24          240 
 1469000        146.9    570350.45  0.047457952   0.06053037          450           24          240 
 1470000          147    570398.37  0.049500666   0.06053037          450           24          240 
 1471000        147.1    570459.35  0.051540001   0.06053037          450           24          240 
 1472000        147.2    570498.88  0.053690457   0.06053037          450           24          240 
 1473000        147.3    570511.56   0.05610207   0.06053037          450           24          240 
 1474000        147.4    570481.05  0.058519258   0.06053037          450           24          240 
 1475000        147.5    570409.57  0.060932181   0.06053037          450           24          240 
 1476000        147.6    570327.88  0.063524921   0.06053037          450           24          240 
 1477000        147.7     570268.7  0.066112902   0.06053037          450           24          240 
 1478000        147.8    570196.92  0.068728158   0.06053037          450           24          240 
 1479000        147.9    570126.02  0.071506754   0.06053037          450           24          240 
 1480000          148     570047.4  0.074315805   0.06053037          450           24          240 
 1481000        148.1    569988.37  0.076927508   0.06053037          450           24          240 
 1482000        148.2    569966.31  0.079637223   0.06053037          450           24          240 
 1483000        148.3    569910.78  0.082585025   0.06053037          450           24          240 
 1484000        148.4    569905.29  0.085643586   0.06053037          450           24          240 
 1485000        148.5    569863.46  0.088655434   0.06053037          450           24          240 
 1486000        148.6    569831.42  0.091644733   0.06053037          450           24          240 
 1487000        148.7    569846.43  0.094644568   0.06053037          450           24          240 
 1488000        148.8    569874.75  0.097794525   0.06053037          450           24          240 
 1489000        148.9    569864.61   0.10104673   0.06053037          450           24          240 
 1490000          149    569794.91   0.10421426   0.06053037          450           24          240 
 1491000        149.1    569776.36   0.10734825   0.06053037          450           24          240 
 1492000        149.2    569772.04   0.11053687   0.06053037          450           24          240 
 1493000        149.3    569775.62   0.11379847   0.06053037          450           24          240 
 1494000        149.4    569746.83   0.11718393   0.06053037          450           24          240 
 1495000        149.5    569766.76    0.1205194   0.06053037          450           24          240 
 1496000        149.6    569790.98   0.12385014   0.06053037          450           24          240 
 1497000        149.7    569819.68   0.12723141   0.06053037          450           24          240 
 1498000        149.8    569824.48   0.13060425   0.06053037          450           24          240 
 1499000        149.9    569820.48   0.13395554   0.06053037          450           24          240 
 1500000          150     569865.3    0.1373331   0.06053037          450           24          240 
 1501000        150.1    569921.38    0.1407861   0.06053037          450           24          240 
 1502000        150.2    569962.34   0.14413195   0.06053037          450           24          240 
 1503000        150.3    569933.16   0.14761186   0.06053037          450           24          240 
 1504000        150.4    569857.46    0.1511581   0.06053037          450           24          240 
 1505000        150.5    569797.65   0.15455045   0.06053037          450           24          240 
 1506000        150.6    569765.67   0.15790343   0.06053037          450           24          240 
 1507000        150.7    569764.02   0.16125018   0.06053037          450           24          240 
 1508000        150.8    569685.35   0.16476264   0.06053037          450           24          240 
 1509000        150.9    569592.13   0.16826197   0.06053037          450           24          240 
 1510000          151    569473.82   0.17174269   0.06053037          450           24          240 
 1511000        151.1    569359.28   0.17527329   0.06053037          450           24          240 
 1512000        151.2    569289.56    0.1787738   0.06053037          450           24          240 
 1513000        151.3    569247.99   0.18213748   0.06053037          450           24          240 
 1514000        151.4    569245.49   0.18553501   0.06053037          450           24          240 
 1515000        151.5    569266.96   0.18892638   0.06053037          450           24          240 
 1516000        151.6    569279.81   0.19224329   0.06053037          450           24          240 
 1517000        151.7    569306.28   0.19544084   0.06053037          450           24          240 
 1518000        151.8    569356.69   0.19870584   0.06053037          450           24          240 
 1519000        151.9    569359.99   0.20215091   0.06053037          450           24          240 
 1520000          152    569383.39   0.20550506   0.06053037          450           24          240 
 1521000        152.1     569398.3   0.20874801   0.06053037          450           24          240 
 1522000        152.2    569415.28   0.21189401   0.06053037          450           24          240 
 1523000        152.3    569448.14   0.21505334   0.06053037          450           24          240 
 1524000        152.4    569402.37   0.21833958   0.06053037          450           24          240 
 1525000        152.5    569310.79   0.22159278   0.06053037          450           24          240 
 1526000        152.6    569257.69   0.22467607   0.06053037          450           24          240 
 1527000        152.7    569320.58   0.22769587   0.06053037          450           24          240 
 1528000        152.8     569411.7   0.23077909   0.06053037          450           24          240 
 1529000        152.9    569431.97   0.23376291   0.06053037          450           24          240 
 1530000          153    569468.29   0.23675923   0.06053037          450           24          240 
 1531000        153.1    569523.96   0.23979415   0.06053037          450           24          240 
 1532000        153.2    569615.02    0.2427304   0.06053037          450           24          240 
 1533000        153.3    569707.06   0.24564473   0.06053037          450           24          240 
 1534000        153.4    569811.41   0.24851953   0.06053037          450           24          240 
 1535000        153.5    569889.34   0.25135073   0.06053037          450           24          240 
 1536000        153.6    569948.28   0.25414895   0.06053037          450           24          240 
 1537000        153.7    570067.45   0.25688292   0.06053037          450           24          240 
 1538000        153.8     570189.9   0.25953642   0.06053037          450           24          240 
 1539000        153.9    570247.45   0.26215497   0.06053037          450           24          240 
 1540000          154    570305.04   0.26485226   0.06053037          450           24          240 
 1541000        154.1    570350.31   0.26755997   0.06053037          450           24          240 
 1542000        154.2    570445.82   0.27013629   0.06053037          450           24          240 
 1543000        154.3    570566.93   0.27259737   0.06053037          450           24          240 
 1544000        154.4    570671.87   0.27504806   0.06053037          450           24          240 
 1545000        154.5    570764.94   0.27739546   0.06053037          450           24          240 
 1546000        154.6    570882.22    0.2797629   0.06053037          450           24          240 
 1547000        154.7    571021.29   0.28213685   0.06053037          450           24          240 
 1548000        154.8    571175.79   0.28447528   0.06053037          450           24          240 
 1549000        154.9    571313.13   0.28670912   0.06053037          450           24          240 
 1550000          155    571510.67   0.28889837   0.06053037          450           24          240 
 1551000        155.1    571742.97   0.29096145   0.06053037          450           24          240 
 1552000        155.2    571954.74   0.29300708   0.06053037          450           24          240 
 1553000        155.3    572138.84   0.29518972   0.06053037          450           24          240 
 1554000        155.4    572330.58   0.29736637   0.06053037          450           24          240 
 1555000        155.5    572481.51    0.2993807   0.06053037          450           24          240 
 1556000        155.6    572679.14   0.30130442   0.06053037          450           24          240 
 1557000        155.7    572893.39   0.30315131   0.06053037          450           24          240 
 1558000        155.8    573116.08   0.30494053   0.06053037          450           24          240 
 1559000        155.9    573312.52   0.30674271   0.06053037          450           24          240 
 1560000          156    573483.76   0.30852483   0.06053037          450           24          240 
 1561000        156.1    573659.71   0.31010866   0.06053037          450           24          240 
 1562000        156.2    573817.63   0.31164257   0.06053037          450           24          240 
 1563000        156.3    573932.73   0.31339283   0.06053037          450           24          240 
 1564000        156.4    574073.29   0.31508692   0.06053037          450           24          240 
 1565000        156.5    574228.62   0.31653081   0.06053037          450           24          240 
 1566000        156.6    574359.61   0.31797397   0.06053037          450           24          240 
 1567000        156.7    574453.27   0.31935783   0.06053037          450           24          240 
 1568000        156.8    574479.73   0.32071429   0.06053037          450           24          240 
 1569000        156.9    574491.63   0.32207197   0.06053037          450           24          240 
 1570000          157    574483.26   0.32327745   0.06053037          450           24          240 
 1571000        157.1    574493.61   0.32450196   0.06053037          450           24          240 
 1572000        157.2    574463.62   0.32579734   0.06053037          450           24          240 
 1573000        157.3    574424.31    0.3270531   0.06053037          450           24          240 
 1574000        157.4    574357.57   0.32812647   0.06053037          450           24          240 
 1575000        157.5    574208.67   0.32912671   0.06053037          450           24          240 
 1576000        157.6    574046.47   0.33019415   0.06053037          450           24          240 
 1577000        157.7    573926.73    0.3312345   0.06053037          450           24          240 
 1578000        157.8    573857.74   0.33222689   0.06053037          450           24          240 
 1579000        157.9    573833.62    0.3331514   0.06053037          450           24          240 
 1580000          158    573802.18   0.33400817   0.06053037          450           24          240 
 1581000        158.1    573781.28   0.33479463   0.06053037          450           24          240 
 1582000        158.2    573775.19    0.3355178   0.06053037          450           24          240 
 1583000        158.3    573731.01   0.33625098   0.06053037          450           24          240 
 1584000        158.4    573654.46   0.33690554   0.06053037          450           24          240 
 1585000        158.5    573591.55   0.33756841   0.06053037          450           24          240 
 1586000        158.6     573586.5   0.33828768   0.06053037          450           24          240 
 1587000        158.7       573549   0.33897028   0.06053037          450           24          240 
 1588000        158.8    573537.56   0.33942948   0.06053037          450           24          240 
 1589000        158.9    573500.81     0.339874   0.06053037          450           24          240 
 1590000          159    573476.57   0.34033387   0.06053037          450           24          240 
 1591000        159.1    573471.63    0.3409521   0.06053037          450           24          240 
 1592000        159.2    573452.01   0.34147051   0.06053037          450           24          240 
 1593000        159.3    573447.43   0.34175798   0.06053037          450           24          240 
 1594000        159.4    573504.71   0.34195689   0.06053037          450           24          240 
 1595000        159.5    573570.61   0.34225961   0.06053037          450           24          240 
 1596000        159.6    573676.35   0.34259476   0.06053037          450           24          240 
 1597000        159.7    573797.36    0.3428332   0.06053037          450           24          240 
 1598000        159.8    573859.99   0.34310629   0.06053037          450           24          240 
 1599000        159.9    573876.68   0.34328715   0.06053037          450           24          240 
 1600000          160    573862.39   0.34339038   0.06053037          450           24          240 
 1601000        160.1    573805.44   0.34354267   0.06053037          450           24          240 
 1602000        160.2    573759.16   0.34361165   0.06053037          450           24          240 
 1603000        160.3    573664.54   0.34361903   0.06053037          450           24          240 
 1604000        160.4    573518.81    0.3437309   0.06053037          450           24          240 
 1605000        160.5    573384.57    0.3440223   0.06053037          450           24          240 
 1606000        160.6    573298.54   0.34416152   0.06053037          450           24          240 
 1607000        160.7    573222.94   0.34414708   0.06053037          450           24          240 
 1608000        160.8    573156.96   0.34407396   0.06053037          450           24          240 
 1609000        160.9    573098.05   0.34395902   0.06053037          450           24          240 
 1610000          161    573067.68   0.34390016   0.06053037          450           24          240 
 1611000        161.1    573022.59   0.34379616   0.06053037          450           24          240 
 1612000        161.2    573039.76    0.3436455   0.06053037          450           24          240 
 1613000        161.3    573050.08   0.34346903   0.06053037          450           24          240 
 1614000        161.4    573029.76   0.34328071   0.06053037          450           24          240 
 1615000        161.5    573043.47   0.34304798   0.06053037          450           24          240 
 1616000        161.6    573024.09   0.34284845   0.06053037          450           24          240 
 1617000        161.7    572993.59   0.34269632   0.06053037          450           24          240 
 1618000        161.8    572951.93   0.34256895   0.06053037          450           24          240 
 1619000        161.9    572952.05   0.34235427   0.06053037          450           24          240 
 1620000          162    572979.14   0.34209868   0.06053037          450           24          240 
 1621000        162.1    573004.94    0.3417968   0.06053037          450           24          240 
 1622000        162.2    573008.99   0.34147579   0.06053037          450           24          240 
 1623000        162.3    572921.04   0.34121092   0.06053037          450           24          240 
 1624000        162.4    572901.55   0.34089137   0.06053037          450           24          240 
 1625000        162.5    572891.11   0.34047294   0.06053037          450           24          240 
 1626000        162.6    572875.16   0.34014359   0.06053037          450           24          240 
 1627000        162.7    572835.65   0.33980202   0.06053037          450           24          240 
 1628000        162.8    572800.22   0.33941419   0.06053037          450           24          240 
 1629000        162.9    572747.19   0.33911219   0.06053037          450           24          240 
 1630000          163    572699.27   0.33881411   0.06053037          450           24          240 
 1631000        163.1    572625.56    0.3383992   0.06053037          450           24          240 
 1632000        163.2    572600.53    0.3378866   0.06053037          450           24          240 
 1633000        163.3    572623.38   0.33747726   0.06053037          450           24          240 
 1634000        163.4     572637.2   0.33710379   0.06053037          450           24          240 
 1635000        163.5    572574.02   0.33663215   0.06053037          450           24          240 
 1636000        163.6    572539.47    0.3362673   0.06053037          450           24          240 
 1637000        163.7    572483.42   0.33595431   0.06053037          450           24          240 
 1638000        163.8    572426.84   0.33555728   0.06053037          450           24          240 
 1639000        163.9     572452.6   0.33502317   0.06053037          450           24          240 
 1640000          164    572468.18   0.33449323   0.06053037          450           24          240 
 1641000        164.1    572435.06   0.33400126   0.06053037          450           24          240 
 1642000        164.2    572446.41   0.33352498   0.06053037          450           24          240 
 1643000        164.3    572455.61   0.33309952   0.06053037          450           24          240 
 1644000        164.4    572358.86   0.33277926   0.06053037          450           24          240 
 1645000        164.5    572263.85   0.33240571   0.06053037          450           24          240 
 1646000        164.6    572104.99   0.33187539   0.06053037          450           24          240 
 1647000        164.7    571916.83   0.33133053   0.06053037          450           24          240 
 1648000        164.8    571734.39   0.33091371   0.06053037          450           24          240 
 1649000        164.9    571549.52   0.33054916   0.06053037          450           24          240 
 1650000          165    571335.66    0.3300992   0.06053037          450           24          240 
 1651000        165.1    571095.51   0.32964698   0.06053037          450           24          240 
 1652000        165.2    570849.16   0.32924946   0.06053037          450           24          240 
 1653000        165.3    570624.08   0.32884383   0.06053037          450           24          240 
 1654000        165.4    570367.53   0.32843133   0.06053037          450           24          240 
 1655000        165.5    570063.77     0.328144   0.06053037          450           24          240 
 1656000        165.6    569808.41   0.32765158   0.06053037          450           24          240 
 1657000        165.7    569592.66   0.32702748   0.06053037          450           24          240 
 1658000        165.8    569335.71   0.32660424   0.06053037          450           24          240 
 1659000        165.9    568978.63   0.32628599   0.06053037          450           24          240 
 1660000          166    568585.73   0.32590745   0.06053037          450           24          240 
 1661000        166.1    568178.57   0.32555451   0.06053037          450           24          240 
 1662000        166.2     567815.9   0.32521219   0.06053037          450           24          240 
 1663000        166.3    567483.52   0.32478065   0.06053037          450           24          240 
 1664000        166.4    567107.94   0.32437835   0.06053037          450           24          240 
 1665000        166.5    566717.37   0.32402861   0.06053037          450           24          240 
 1666000        166.6    566349.42   0.32366892   0.06053037          450           24          240 
 1667000        166.7    566030.08   0.32325037   0.06053037          450           24          240 
 1668000        166.8    565714.65   0.32292696   0.06053037          450           24          240 
 1669000        166.9    565381.43   0.32266435   0.06053037          450           24          240 
 1670000          167    565101.21   0.32233254   0.06053037          450           24          240 
 1671000        167.1    564890.33    0.3219073   0.06053037          450           24          240 
 1672000        167.2       564725   0.32160307   0.06053037          450           24          240 
 1673000        167.3     564617.1   0.32137528   0.06053037          450           24          240 
 1674000        167.4    564497.51   0.32114592   0.06053037          450           24          240 
 1675000        167.5    564388.33    0.3209429   0.06053037          450           24          240 
 1676000        167.6    564241.01   0.32071134   0.06053037          450           24          240 
 1677000        167.7    564079.85   0.32037816   0.06053037          450           24          240 
 1678000        167.8    563940.39   0.32010175   0.06053037          450           24          240 
 1679000        167.9    563862.53   0.31991138   0.06053037          450           24          240 
 1680000          168    563810.03    0.3197149   0.06053037          450           24          240 
 1681000        168.1    563693.41   0.31956533   0.06053037          450           24          240 
 1682000        168.2    563505.25   0.31941606   0.06053037          450           24          240 
 1683000        168.3    563265.66   0.31919317   0.06053037          450           24          240 
 1684000        168.4    563040.26   0.31901547   0.06053037          450           24          240 
 1685000        168.5    562839.25   0.31882734   0.06053037          450           24          240 
 1686000        168.6    562620.92   0.31872226   0.06053037          450           24          240 
 1687000        168.7    562454.31   0.31867449   0.06053037          450           24          240 
 1688000        168.8    562266.81   0.31859833   0.06053037          450           24          240 
 1689000        168.9    562107.71   0.31847713   0.06053037          450           24          240 
 1690000          169    561951.61   0.31824166   0.06053037          450           24          240 
 1691000        169.1    561841.65   0.31823284   0.06053037          450           24          240 
 1692000        169.2    561762.63    0.3182824   0.06053037          450           24          240 
 1693000        169.3    561686.95   0.31808225   0.06053037          450           24          240 
 1694000        169.4    561562.45   0.31788838   0.06053037          450           24          240 
 1695000        169.5    561477.32    0.3179421   0.06053037          450           24          240 
 1696000        169.6    561454.82   0.31796678   0.06053037          450           24          240 
 1697000        169.7    561453.34   0.31788555   0.06053037          450           24          240 
 1698000        169.8    561401.96   0.31789717   0.06053037          450           24          240 
 1699000        169.9    561361.51   0.31802312   0.06053037          450           24          240 
 1700000          170    561325.09   0.31814689   0.06053037          450           24          240 
 1701000        170.1    561234.57   0.31812465   0.06053037          450           24          240 
 1702000        170.2     561127.2   0.31817833   0.06053037          450           24          240 
 1703000        170.3    560981.22    0.3184057   0.06053037          450           24          240 
 1704000        170.4    560912.61   0.31850364   0.06053037          450           24          240 
 1705000        170.5    560834.72   0.31856084   0.06053037          450           24          240 
 1706000        170.6    560799.96    0.3187089   0.06053037          450           24          240 
 1707000        170.7    560753.69   0.31877637   0.06053037          450           24          240 
 1708000        170.8    560719.98   0.31880652   0.06053037          450           24          240 
 1709000        170.9    560709.01   0.31900858   0.06053037          450           24          240 
 1710000          171    560701.69   0.31922915   0.06053037          450           24          240 
 1711000        171.1    560690.29   0.31937607   0.06053037          450           24          240 
 1712000        171.2    560641.19   0.31962565   0.06053037          450           24          240 
 1713000        171.3    560579.99   0.31985047   0.06053037          450           24          240 
 1714000        171.4    560572.74   0.31988785   0.06053037          450           24          240 
 1715000        171.5    560490.73    0.3199502   0.06053037          450           24          240 
 1716000        171.6    560460.06   0.32016538   0.06053037          450           24          240 
 1717000        171.7    560466.46   0.32043805   0.06053037          450           24          240 
 1718000        171.8    560492.35   0.32077875   0.06053037          450           24          240 
 1719000        171.9    560500.31   0.32116107   0.06053037          450           24          240 
 1720000          172     560545.1   0.32145508   0.06053037          450           24          240 
 1721000        172.1    560632.26   0.32183762   0.06053037          450           24          240 
 1722000        172.2    560714.66   0.32208243   0.06053037          450           24          240 
 1723000        172.3    560764.13   0.32226787   0.06053037          450           24          240 
 1724000        172.4    560815.34   0.32256768   0.06053037          450           24          240 
 1725000        172.5    560862.47   0.32307428   0.06053037          450           24          240 
 1726000        172.6     560902.7   0.32344038   0.06053037          450           24          240 
 1727000        172.7    561003.62   0.32367301   0.06053037          450           24          240 
 1728000        172.8    561279.77    0.3239947   0.06053037          450           24          240 
 1729000        172.9    561518.63   0.32437379   0.06053037          450           24          240 
 1730000          173    561741.77   0.32474672   0.06053037          450           24          240 
 1731000        173.1    561959.99   0.32510362   0.06053037          450           24          240 
 1732000        173.2    562132.31   0.32547837   0.06053037          450           24          240 
 1733000        173.3    562323.88   0.32584726   0.06053037          450           24          240 
 1734000        173.4     562556.4   0.32626106   0.06053037          450           24          240 
 1735000        173.5    562829.67    0.3267788   0.06053037          450           24          240 
 1736000        173.6    563060.12   0.32723804   0.06053037          450           24          240 
 1737000        173.7    563272.16   0.32763445   0.06053037          450           24          240 
 1738000        173.8    563384.24   0.32806893   0.06053037          450           24          240 
 1739000        173.9     563555.7   0.32839961   0.06053037          450           24          240 
 1740000          174    563769.17   0.32869324   0.06053037          450           24          240 
 1741000        174.1    563965.48   0.32910282   0.06053037          450           24          240 
 1742000        174.2    564163.71   0.32969126   0.06053037          450           24          240 
 1743000        174.3    564427.79   0.33014724   0.06053037          450           24          240 
 1744000        174.4    564736.97   0.33044864   0.06053037          450           24          240 
 1745000        174.5     565018.2   0.33083156   0.06053037          450           24          240 
 1746000        174.6    565402.05   0.33128937   0.06053037          450           24          240 
 1747000        174.7    565773.91   0.33180278   0.06053037          450           24          240 
 1748000        174.8    566101.78   0.33232093   0.06053037          450           24          240 
 1749000        174.9     566397.6   0.33275487   0.06053037          450           24          240 
 1750000          175     566661.1   0.33328303   0.06053037          450           24          240 
 1751000        175.1     566967.6    0.3337551   0.06053037          450           24          240 
 1752000        175.2    567296.76   0.33415707   0.06053037          450           24          240 
 1753000        175.3    567601.23   0.33460131   0.06053037          450           24          240 
 1754000        175.4    567853.14   0.33510126   0.06053037          450           24          240 
 1755000        175.5    568083.73   0.33552402   0.06053037          450           24          240 
 1756000        175.6    568227.38   0.33594396   0.06053037          450           24          240 
 1757000        175.7    568424.84   0.33636959   0.06053037          450           24          240 
 1758000        175.8    568635.91   0.33674084   0.06053037          450           24          240 
 1759000        175.9    568888.93   0.33713072   0.06053037          450           24          240 
 1760000          176    569078.26    0.3375493   0.06053037          450           24          240 
 1761000        176.1    569203.27   0.33797447   0.06053037          450           24          240 
 1762000        176.2    569310.94   0.33833922   0.06053037          450           24          240 
 1763000        176.3    569412.98   0.33873465   0.06053037          450           24          240 
 1764000        176.4    569586.94   0.33921698   0.06053037          450           24          240 
 1765000        176.5    569736.57   0.33966702   0.06053037          450           24          240 
 1766000        176.6    569898.11   0.34006416   0.06053037          450           24          240 
 1767000        176.7    570032.61   0.34036333   0.06053037          450           24          240 
 1768000        176.8    570097.13   0.34068617   0.06053037          450           24          240 
 1769000        176.9    570162.59   0.34099069   0.06053037          450           24          240 
 1770000          177    570247.79   0.34137138   0.06053037          450           24          240 
 1771000        177.1    570307.03   0.34180547   0.06053037          450           24          240 
 1772000        177.2    570358.12   0.34210561   0.06053037          450           24          240 
 1773000        177.3    570366.98   0.34236969   0.06053037          450           24          240 
 1774000        177.4    570389.72   0.34266689   0.06053037          450           24          240 
 1775000        177.5    570483.89   0.34287997   0.06053037          450           24          240 
 1776000        177.6    570551.19   0.34306157   0.06053037          450           24          240 
 1777000        177.7    570639.58   0.34326138   0.06053037          450           24          240 
 1778000        177.8    570740.51   0.34351049   0.06053037          450           24          240 
 1779000        177.9    570806.66     0.343823   0.06053037          450           24          240 
 1780000          178    570855.44    0.3440145   0.06053037          450           24          240 
 1781000        178.1    570898.22   0.34412458   0.06053037          450           24          240 
 1782000        178.2    570948.17   0.34425002   0.06053037          450           24          240 
 1783000        178.3    571010.35   0.34436166   0.06053037          450           24          240 
 1784000        178.4    571094.04   0.34444855   0.06053037          450           24          240 
 1785000        178.5    571073.94   0.34468721   0.06053037          450           24          240 
 1786000        178.6    571015.61   0.34488807   0.06053037          450           24          240 
 1787000        178.7    571023.03    0.3448194   0.06053037          450           24          240 
 1788000        178.8     570970.9   0.34479169   0.06053037          450           24          240 
 1789000        178.9    570879.04   0.34486706   0.06053037          450           24          240 
 1790000          179     570720.6   0.34489687   0.06053037          450           24          240 
 1791000        179.1    570503.64   0.34500938   0.06053037          450           24          240 
 1792000        179.2    570297.27   0.34492787   0.06053037          450           24          240 
 1793000        179.3    570169.21   0.34483698   0.06053037          450           24          240 
 1794000        179.4    570066.43   0.34478101   0.06053037          450           24          240 
 1795000        179.5    569899.25   0.34463838   0.06053037          450           24          240 
 1796000        179.6    569675.58   0.34437149   0.06053037          450           24          240 
 1797000        179.7    569435.52   0.34411531   0.06053037          450           24          240 
 1798000        179.8    569269.36   0.34400429   0.06053037          450           24          240 
 1799000        179.9    569150.65    0.3438328   0.06053037          450           24          240 
 1800000          180    569070.24   0.34351836   0.06053037          450           24          240 
 1801000        180.1    569013.52   0.34316957   0.06053037          450           24          240 
 1802000        180.2    568995.93    0.3427575   0.06053037          450           24          240 
 1803000        180.3    569019.57    0.3423283   0.06053037          450           24          240 
 1804000        180.4    569059.72   0.34197771   0.06053037          450           24          240 
 1805000        180.5    569115.46   0.34157588   0.06053037          450           24          240 
 1806000        180.6    569114.93   0.34112227   0.06053037          450           24          240 
 1807000        180.7    569124.09   0.34058149   0.06053037          450           24          240 
 1808000        180.8    569172.45   0.33999452   0.06053037          450           24          240 
 1809000        180.9    569204.45   0.33940524   0.06053037          450           24          240 
 1810000          181    569204.94   0.33874586   0.06053037          450           24          240 
 1811000        181.1    569183.12   0.33807048   0.06053037          450           24          240 
 1812000        181.2    569175.58   0.33746011   0.06053037          450           24          240 
 1813000        181.3    569182.91   0.33676678   0.06053037          450           24          240 
 1814000        181.4    569180.26   0.33596897   0.06053037          450           24          240 
 1815000        181.5    569144.86   0.33517164   0.06053037          450           24          240 
 1816000        181.6    569125.76   0.33429869   0.06053037          450           24          240 
 1817000        181.7    569134.34   0.33336496   0.06053037          450           24          240 
 1818000        181.8    569158.77   0.33249165   0.06053037          450           24          240 
 1819000        181.9     569115.6   0.33157015   0.06053037          450           24          240 
 1820000          182    569106.96   0.33052193   0.06053037          450           24          240 
 1821000        182.1    569034.07   0.32944453   0.06053037          450           24          240 
 1822000        182.2    568919.96   0.32829342   0.06053037          450           24          240 
 1823000        182.3    568762.69   0.32717825   0.06053037          450           24          240 
 1824000        182.4    568626.78   0.32612019   0.06053037          450           24          240 
 1825000        182.5    568458.54   0.32491188   0.06053037          450           24          240 
 1826000        182.6    568243.51   0.32360475   0.06053037          450           24          240 
 1827000        182.7    568034.08   0.32227898   0.06053037          450           24          240 
 1828000        182.8    567809.46   0.32093563   0.06053037          450           24          240 
 1829000        182.9    567558.13   0.31955761   0.06053037          450           24          240 
 1830000          183    567300.02   0.31809034   0.06053037          450           24          240 
 1831000        183.1    567068.32   0.31649235   0.06053037          450           24          240 
 1832000        183.2    566798.82   0.31492351   0.06053037          450           24          240 
 1833000        183.3    566531.44    0.3134128   0.06053037          450           24          240 
 1834000        183.4    566304.41   0.31177078   0.06053037          450           24          240 
 1835000        183.5    566096.53   0.30999776   0.06053037          450           24          240 
 1836000        183.6    565888.27   0.30824294   0.06053037          450           24          240 
 1837000        183.7    565706.83   0.30640055   0.06053037          450           24          240 
 1838000        183.8    565462.36   0.30450121   0.06053037          450           24          240 
 1839000        183.9    565244.68   0.30268409   0.06053037          450           24          240 
 1840000          184    565066.36   0.30085565   0.06053037          450           24          240 
 1841000        184.1    564935.43   0.29889878   0.06053037          450           24          240 
 1842000        184.2    564807.72   0.29685702   0.06053037          450           24          240 
 1843000        184.3    564716.47   0.29471874   0.06053037          450           24          240 
 1844000        184.4    564659.76   0.29248794   0.06053037          450           24          240 
 1845000        184.5    564632.54   0.29018743   0.06053037          450           24          240 
 1846000        184.6    564681.31   0.28799445   0.06053037          450           24          240 
 1847000        184.7    564763.34   0.28581081   0.06053037          450           24          240 
 1848000        184.8    564822.74    0.2836127   0.06053037          450           24          240 
 1849000        184.9    564945.61   0.28134788   0.06053037          450           24          240 
 1850000          185    565093.11   0.27897575   0.06053037          450           24          240 
 1851000        185.1     565303.7    0.2765937   0.06053037          450           24          240 
 1852000        185.2    565493.47   0.27412479   0.06053037          450           24          240 
 1853000        185.3    565725.32   0.27157568   0.06053037          450           24          240 
 1854000        185.4    565922.04   0.26906432   0.06053037          450           24          240 
 1855000        185.5    566103.23   0.26652728   0.06053037          450           24          240 
 1856000        185.6    566214.81   0.26382239   0.06053037          450           24          240 
 1857000        185.7     566383.5   0.26107315   0.06053037          450           24          240 
 1858000        185.8    566627.51   0.25837237   0.06053037          450           24          240 
 1859000        185.9     566868.1   0.25564336   0.06053037          450           24          240 
 1860000          186    567101.65   0.25281447   0.06053037          450           24          240 
 1861000        186.1    567372.93   0.24991044   0.06053037          450           24          240 
 1862000        186.2     567659.1   0.24701301   0.06053037          450           24          240 
 1863000        186.3    567913.62   0.24426705   0.06053037          450           24          240 
 1864000        186.4    568153.38   0.24144102   0.06053037          450           24          240 
 1865000        186.5    568325.51   0.23843555   0.06053037          450           24          240 
 1866000        186.6    568491.76    0.2353493   0.06053037          450           24          240 
 1867000        186.7    568687.92   0.23229395   0.06053037          450           24          240 
 1868000        186.8    568938.96   0.22937406   0.06053037          450           24          240 
 1869000        186.9    569230.34   0.22628056   0.06053037          450           24          240 
 1870000          187    569483.18   0.22300346   0.06053037          450           24          240 
 1871000        187.1    569784.52   0.21983129   0.06053037          450           24          240 
 1872000        187.2    570063.53   0.21662837   0.06053037          450           24          240 
 1873000        187.3    570395.21   0.21345125   0.06053037          450           24          240 
 1874000        187.4     570694.3   0.21026655   0.06053037          450           24          240 
 1875000        187.5     570984.2   0.20708624   0.06053037          450           24          240 
 1876000        187.6    571304.33   0.20392618   0.06053037          450           24          240 
 1877000        187.7    571580.55   0.20051086   0.06053037          450           24          240 
 1878000        187.8    571832.04   0.19711304   0.06053037          450           24          240 
 1879000        187.9    572128.75   0.19376828   0.06053037          450           24          240 
 1880000          188    572494.92   0.19041264   0.06053037          450           24          240 
 1881000        188.1    572929.04   0.18708939   0.06053037          450           24          240 
 1882000        188.2    573376.24   0.18374774   0.06053037          450           24          240 
 1883000        188.3    573780.58   0.18036747   0.06053037          450           24          240 
 1884000        188.4    574180.63   0.17689739   0.06053037          450           24          240 
 1885000        188.5    574538.75   0.17348693   0.06053037          450           24          240 
 1886000        188.6    574817.78   0.17017017   0.06053037          450           24          240 
 1887000        188.7    575086.91   0.16678063   0.06053037          450           24          240 
 1888000        188.8    575347.41   0.16330278   0.06053037          450           24          240 
 1889000        188.9    575599.82   0.15987163   0.06053037          450           24          240 
 1890000          189    575903.37   0.15650332   0.06053037          450           24          240 
 1891000        189.1    576229.54   0.15314157   0.06053037          450           24          240 
 1892000        189.2     576545.5   0.14970473   0.06053037          450           24          240 
 1893000        189.3    576806.98   0.14620628   0.06053037          450           24          240 
 1894000        189.4    577065.97    0.1428017   0.06053037          450           24          240 
 1895000        189.5    577361.04   0.13948388   0.06053037          450           24          240 
 1896000        189.6    577679.57   0.13618259   0.06053037          450           24          240 
 1897000        189.7    578040.62   0.13289549   0.06053037          450           24          240 
 1898000        189.8    578417.86     0.129552   0.06053037          450           24          240 
 1899000        189.9    578730.45   0.12610903   0.06053037          450           24          240 
 1900000          190     578999.9   0.12275182   0.06053037          450           24          240 
 1901000        190.1    579319.62   0.11956311   0.06053037          450           24          240 
 1902000        190.2    579629.16   0.11622881   0.06053037          450           24          240 
 1903000        190.3    579930.39   0.11288192   0.06053037          450           24          240 
 1904000        190.4    580204.61   0.10976675   0.06053037          450           24          240 
 1905000        190.5    580457.94   0.10660765   0.06053037          450           24          240 
 1906000        190.6    580664.49   0.10344799   0.06053037          450           24          240 
 1907000        190.7    580909.57   0.10044356   0.06053037          450           24          240 
 1908000        190.8    581097.68  0.097427233   0.06053037          450           24          240 
 1909000        190.9    581244.08  0.094361939   0.06053037          450           24          240 
 1910000          191    581518.58  0.091387681   0.06053037          450           24          240 
 1911000        191.1    581871.32  0.088375919   0.06053037          450           24          240 
 1912000        191.2    582220.72  0.085455973   0.06053037          450           24          240 
 1913000        191.3    582557.13   0.08263135   0.06053037          450           24          240 
 1914000        191.4    582890.91  0.079852729   0.06053037          450           24          240 
 1915000        191.5    583236.47  0.077037511   0.06053037          450           24          240 
 1916000        191.6    583535.76  0.074305959   0.06053037          450           24          240 
 1917000        191.7    583785.95  0.071750877   0.06053037          450           24          240 
 1918000        191.8    584014.36  0.069287644   0.06053037          450           24          240 
 1919000        191.9    584255.65  0.066793141   0.06053037          450           24          240 
 1920000          192    584530.95  0.064313566   0.06053037          450           24          240 
 1921000        192.1    584777.09  0.061891731   0.06053037          450           24          240 
 1922000        192.2    585018.71  0.059558721   0.06053037          450           24          240 
 1923000        192.3    585261.13  0.057323273   0.06053037          450           24          240 
 1924000        192.4     585483.8   0.05516516   0.06053037          450           24          240 
 1925000        192.5    585660.98  0.053098046   0.06053037          450           24          240 
 1926000        192.6    585811.36  0.051126903   0.06053037          450           24          240 
 1927000        192.7    585940.25  0.049163191   0.06053037          450           24          240 
 1928000        192.8    586066.21  0.047198784   0.06053037          450           24          240 
 1929000        192.9    586253.61  0.045412668   0.06053037          450           24          240 
 1930000          193    586471.26  0.043741465   0.06053037          450           24          240 
 1931000        193.1    586718.38  0.042178124   0.06053037          450           24          240 
 1932000        193.2    586987.85  0.040757568   0.06053037          450           24          240 
 1933000        193.3    587217.24  0.039386263   0.06053037          450           24          240 
 1934000        193.4    587445.41   0.03811377   0.06053037          450           24          240 
 1935000        193.5    587668.29    0.0368009   0.06053037          450           24          240 
 1936000        193.6    587893.11  0.035572437   0.06053037          450           24          240 
 1937000        193.7    588124.12  0.034570285   0.06053037          450           24          240 
 1938000        193.8    588405.58  0.033623516   0.06053037          450           24          240 
 1939000        193.9    588690.36  0.032728816   0.06053037          450           24          240 
 1940000          194    589033.09  0.031949669   0.06053037          450           24          240 
 1941000        194.1    589356.62  0.031356838   0.06053037          450           24          240 
 1942000        194.2    589705.32  0.030906969   0.06053037          450           24          240 
 1943000        194.3    590085.96    0.0305198   0.06053037          450           24          240 
 1944000        194.4     590389.5  0.030371225   0.06053037          450           24          240 
 1945000        194.5    590754.63  0.030396304   0.06053037          450           24          240 
 1946000        194.6     591129.3  0.030564777   0.06053037          450           24          240 
 1947000        194.7    591521.41  0.030861321   0.06053037          450           24          240 
 1948000        194.8    591841.99  0.031128009   0.06053037          450           24          240 
 1949000        194.9     592057.6  0.031618586   0.06053037          450           24          240 
 1950000          195    592253.27  0.032315403   0.06053037          450           24          240 
 1951000        195.1    592484.23  0.033113375   0.06053037          450           24          240 
 1952000        195.2    592715.31  0.034088985   0.06053037          450           24          240 
 1953000        195.3    592962.41   0.03511366   0.06053037          450           24          240 
 1954000        195.4     593226.6  0.036168966   0.06053037          450           24          240 
 1955000        195.5    593562.98   0.03733331   0.06053037          450           24          240 
 1956000        195.6    593857.46  0.038666655   0.06053037          450           24          240 
 1957000        195.7    594117.31  0.040097489   0.06053037          450           24          240 
 1958000        195.8     594339.2  0.041572628   0.06053037          450           24          240 
 1959000        195.9     594586.8  0.043115815   0.06053037          450           24          240 
 1960000          196    594799.93   0.04481476   0.06053037          450           24          240 
 1961000        196.1    594936.25  0.046586201   0.06053037          450           24          240 
 1962000        196.2    595047.55  0.048465029   0.06053037          450           24          240 
 1963000        196.3    595197.24  0.050350143   0.06053037          450           24          240 
 1964000        196.4    595385.15  0.052278514   0.06053037          450           24          240 
 1965000        196.5    595531.79  0.054305283   0.06053037          450           24          240 
 1966000        196.6    595715.75  0.056478668   0.06053037          450           24          240 
 1967000        196.7     595850.3  0.058680785   0.06053037          450           24          240 
 1968000        196.8     596013.2  0.060871021   0.06053037          450           24          240 
 1969000        196.9    596140.87  0.063252668   0.06053037          450           24          240 
 1970000          197    596313.67  0.065749222   0.06053037          450           24          240 
 1971000        197.1    596536.97  0.068273199   0.06053037          450           24          240 
 1972000        197.2     596734.1  0.070702817   0.06053037          450           24          240 
 1973000        197.3    596838.03    0.0732794   0.06053037          450           24          240 
 1974000        197.4    596938.63  0.076026786   0.06053037          450           24          240 
 1975000        197.5    596989.45  0.078839703   0.06053037          450           24          240 
 1976000        197.6    597054.25  0.081700306   0.06053037          450           24          240 
 1977000        197.7    597145.77  0.084520498   0.06053037          450           24          240 
 1978000        197.8    597226.07  0.087293529   0.06053037          450           24          240 
 1979000        197.9    597315.53  0.090042459   0.06053037          450           24          240 
 1980000          198    597379.14  0.092997264   0.06053037          450           24          240 
 1981000        198.1    597436.36  0.096119021   0.06053037          450           24          240 
 1982000        198.2    597540.18  0.099212086   0.06053037          450           24          240 
 1983000        198.3    597623.38   0.10221503   0.06053037          450           24          240 
 1984000        198.4     597638.3   0.10536239   0.06053037          450           24          240 
 1985000        198.5    597557.61   0.10858309   0.06053037          450           24          240 
 1986000        198.6    597499.17    0.1117257   0.06053037          450           24          240 
 1987000        198.7    597464.62   0.11498343   0.06053037          450           24          240 
 1988000        198.8    597452.43   0.11829559   0.06053037          450           24          240 
 1989000        198.9    597474.88   0.12148066   0.06053037          450           24          240 
 1990000          199    597533.62   0.12474187   0.06053037          450           24          240 
 1991000        199.1    597611.96   0.12810704   0.06053037          450           24          240 
 1992000        199.2    597709.62   0.13144886   0.06053037          450           24          240 
 1993000        199.3    597766.31   0.13476131   0.06053037          450           24          240 
 1994000        199.4    597771.89   0.13801296   0.06053037          450           24          240 
 1995000        199.5    597784.54   0.14145488   0.06053037          450           24          240 
 1996000        199.6    597839.23   0.14495111   0.06053037          450           24          240 
 1997000        199.7    597771.59   0.14838956   0.06053037          450           24          240 
 1998000        199.8    597607.91   0.15193053   0.06053037          450           24          240 
 1999000        199.9    597399.31   0.15537195   0.06053037          450           24          240 
 2000000          200    597206.28   0.15875716   0.06053037          450           24          240 
 2001000        200.1    596916.94   0.16219045   0.06053037          450           24          240 
 2002000        200.2    596685.84   0.16560548   0.06053037          450           24          240 
 2003000        200.3    596522.66   0.16897551   0.06053037          450           24          240 
 2004000        200.4    596356.93   0.17244452   0.06053037          450           24          240 
 2005000        200.5    596134.41   0.17591431   0.06053037          450           24          240 
 2006000        200.6    595880.44   0.17927771   0.06053037          450           24          240 
 2007000        200.7    595617.99   0.18266748   0.06053037          450           24          240 
 2008000        200.8    595399.29   0.18613665   0.06053037          450           24          240 
 2009000        200.9    595233.86   0.18947095   0.06053037          450           24          240 
 2010000          201    595023.58   0.19276759   0.06053037          450           24          240 
 2011000        201.1       594770   0.19613809   0.06053037          450           24          240 
 2012000        201.2    594535.21    0.1993631   0.06053037          450           24          240 
 2013000        201.3    594309.64   0.20264125   0.06053037          450           24          240 
 2014000        201.4    594126.04   0.20597412   0.06053037          450           24          240 
 2015000        201.5    593954.29   0.20928623   0.06053037          450           24          240 
 2016000        201.6    593810.27   0.21252391   0.06053037          450           24          240 
 2017000        201.7    593702.18   0.21580043   0.06053037          450           24          240 
 2018000        201.8    593572.91    0.2190045   0.06053037          450           24          240 
 2019000        201.9    593447.73    0.2221347   0.06053037          450           24          240 
 2020000          202    593391.37   0.22526032   0.06053037          450           24          240 
 2021000        202.1    593384.56   0.22844601   0.06053037          450           24          240 
 2022000        202.2    593429.22   0.23161893   0.06053037          450           24          240 
 2023000        202.3    593489.74   0.23475403   0.06053037          450           24          240 
 2024000        202.4     593485.2   0.23789071   0.06053037          450           24          240 
 2025000        202.5    593433.67   0.24093632   0.06053037          450           24          240 
 2026000        202.6     593336.6   0.24377847   0.06053037          450           24          240 
 2027000        202.7    593208.79   0.24663669   0.06053037          450           24          240 
 2028000        202.8    593142.47   0.24955512   0.06053037          450           24          240 
 2029000        202.9    593040.21   0.25242352   0.06053037          450           24          240 
 2030000          203     592953.6   0.25519662   0.06053037          450           24          240 
 2031000        203.1    592953.06   0.25803974   0.06053037          450           24          240 
 2032000        203.2    592859.84   0.26094064   0.06053037          450           24          240 
 2033000        203.3     592829.6   0.26368826   0.06053037          450           24          240 
 2034000        203.4    592801.18   0.26632406   0.06053037          450           24          240 
 2035000        203.5    592745.29     0.268985   0.06053037          450           24          240 
 2036000        203.6    592665.96   0.27154144   0.06053037          450           24          240 
 2037000        203.7    592559.51   0.27406078   0.06053037          450           24          240 
 2038000        203.8    592473.87   0.27658416   0.06053037          450           24          240 
 2039000        203.9    592446.73   0.27902762   0.06053037          450           24          240 
 2040000          204    592513.27   0.28147088   0.06053037          450           24          240 
 2041000        204.1    592539.73   0.28383685   0.06053037          450           24          240 
 2042000        204.2    592558.55   0.28614465   0.06053037          450           24          240 
 2043000        204.3    592542.42   0.28851264   0.06053037          450           24          240 
 2044000        204.4    592512.13    0.2907941   0.06053037          450           24          240 
 2045000        204.5    592510.63   0.29298953   0.06053037          450           24          240 
 2046000        204.6    592454.28   0.29504072   0.06053037          450           24          240 
 2047000        204.7    592426.16   0.29718426   0.06053037          450           24          240 
 2048000        204.8    592364.45   0.29930698   0.06053037          450           24          240 
 2049000        204.9    592270.29   0.30140174   0.06053037          450           24          240 
 2050000          205    592143.42   0.30347996   0.06053037          450           24          240 
 2051000        205.1    592018.59   0.30531498   0.06053037          450           24          240 
 2052000        205.2    591859.63   0.30706072   0.06053037          450           24          240 
 2053000        205.3    591711.99   0.30891014   0.06053037          450           24          240 
 2054000        205.4    591610.28   0.31080811   0.06053037          450           24          240 
 2055000        205.5    591468.72   0.31253884   0.06053037          450           24          240 
 2056000        205.6    591307.26   0.31424656   0.06053037          450           24          240 
 2057000        205.7    591130.38   0.31593687   0.06053037          450           24          240 
 2058000        205.8    590934.54   0.31744736   0.06053037          450           24          240 
 2059000        205.9    590803.63   0.31893628   0.06053037          450           24          240 
 2060000          206    590733.46   0.32050455   0.06053037          450           24          240 
 2061000        206.1    590687.68   0.32191856   0.06053037          450           24          240 
 2062000        206.2    590650.34   0.32328722   0.06053037          450           24          240 
 2063000        206.3    590624.16   0.32480047   0.06053037          450           24          240 
 2064000        206.4    590601.32   0.32630216   0.06053037          450           24          240 
 2065000        206.5     590521.9    0.3276618   0.06053037          450           24          240 
 2066000        206.6    590423.39   0.32878229   0.06053037          450           24          240 
 2067000        206.7     590314.8   0.32989064   0.06053037          450           24          240 
 2068000        206.8    590266.64   0.33106878   0.06053037          450           24          240 
 2069000        206.9     590249.5   0.33218629   0.06053037          450           24          240 
 2070000          207    590249.43   0.33324273   0.06053037          450           24          240 
 2071000        207.1    590209.17   0.33427135   0.06053037          450           24          240 
 2072000        207.2    590134.41   0.33528994   0.06053037          450           24          240 
 2073000        207.3    590068.22   0.33627683   0.06053037          450           24          240 
 2074000        207.4    589982.92   0.33722583   0.06053037          450           24          240 
 2075000        207.5    589885.87   0.33821182   0.06053037          450           24          240 
 2076000        207.6    589722.69   0.33908194   0.06053037          450           24          240 
 2077000        207.7    589587.13   0.33978939   0.06053037          450           24          240 
 2078000        207.8    589431.85   0.34053189   0.06053037          450           24          240 
 2079000        207.9    589302.54   0.34127094   0.06053037          450           24          240 
 2080000          208     589205.8   0.34189906   0.06053037          450           24          240 
 2081000        208.1    589091.25   0.34258566   0.06053037          450           24          240 
 2082000        208.2     589000.2   0.34318869   0.06053037          450           24          240 
 2083000        208.3    588883.97   0.34364169   0.06053037          450           24          240 
 2084000        208.4    588764.26   0.34412299   0.06053037          450           24          240 
 2085000        208.5    588666.66    0.3446543   0.06053037          450           24          240 
 2086000        208.6    588541.34   0.34510397   0.06053037          450           24          240 
 2087000        208.7       588414   0.34544862   0.06053037          450           24          240 
 2088000        208.8    588223.83     0.345876   0.06053037          450           24          240 
 2089000        208.9    588008.06   0.34642908   0.06053037          450           24          240 
 2090000          209    587813.78    0.3468119   0.06053037          450           24          240 
 2091000        209.1    587700.52   0.34699267   0.06053037          450           24          240 
 2092000        209.2     587590.9   0.34713211   0.06053037          450           24          240 
 2093000        209.3       587572   0.34731481   0.06053037          450           24          240 
 2094000        209.4    587533.85   0.34752375   0.06053037          450           24          240 
 2095000        209.5    587459.49   0.34767985   0.06053037          450           24          240 
 2096000        209.6    587464.87   0.34785907   0.06053037          450           24          240 
 2097000        209.7    587519.07   0.34809246   0.06053037          450           24          240 
 2098000        209.8    587544.22   0.34822474   0.06053037          450           24          240 
 2099000        209.9    587565.42   0.34815024   0.06053037          450           24          240 
 2100000          210    587615.22   0.34806779   0.06053037          450           24          240 
 2101000        210.1    587724.27   0.34819468   0.06053037          450           24          240 
 2102000        210.2    587870.69   0.34829195   0.06053037          450           24          240 
 2103000        210.3    587969.89   0.34826997   0.06053037          450           24          240 
 2104000        210.4    588051.33    0.3481831   0.06053037          450           24          240 
 2105000        210.5    588152.34   0.34807778   0.06053037          450           24          240 
 2106000        210.6    588184.86   0.34807192   0.06053037          450           24          240 
 2107000        210.7    588259.51   0.34797661   0.06053037          450           24          240 
 2108000        210.8    588265.68   0.34777221   0.06053037          450           24          240 
 2109000        210.9    588306.24   0.34766676   0.06053037          450           24          240 
 2110000          211    588337.68   0.34759785   0.06053037          450           24          240 
 2111000        211.1    588382.86   0.34749996   0.06053037          450           24          240 
 2112000        211.2    588426.68   0.34721564   0.06053037          450           24          240 
 2113000        211.3    588429.22   0.34684573   0.06053037          450           24          240 
 2114000        211.4    588424.64   0.34661034   0.06053037          450           24          240 
 2115000        211.5    588446.92   0.34644774   0.06053037          450           24          240 
 2116000        211.6    588492.95   0.34619507   0.06053037          450           24          240 
 2117000        211.7    588522.12   0.34596276   0.06053037          450           24          240 
 2118000        211.8       588514   0.34563939   0.06053037          450           24          240 
 2119000        211.9    588503.22   0.34529219   0.06053037          450           24          240 
 2120000          212    588523.07   0.34506663   0.06053037          450           24          240 
 2121000        212.1    588505.63   0.34468972   0.06053037          450           24          240 
 2122000        212.2    588473.22   0.34427208   0.06053037          450           24          240 
 2123000        212.3     588444.2   0.34390244   0.06053037          450           24          240 
 2124000        212.4    588402.83   0.34350305   0.06053037          450           24          240 
 2125000        212.5    588317.34   0.34310707   0.06053037          450           24          240 
 2126000        212.6    588289.05   0.34281189   0.06053037          450           24          240 
 2127000        212.7    588213.15   0.34242099   0.06053037          450           24          240 
 2128000        212.8    588107.16    0.3420862   0.06053037          450           24          240 
 2129000        212.9    588017.72   0.34175808   0.06053037          450           24          240 
 2130000          213    587995.66   0.34121835   0.06053037          450           24          240 
 2131000        213.1    587899.01   0.34078743   0.06053037          450           24          240 
 2132000        213.2    587828.77   0.34047908   0.06053037          450           24          240 
 2133000        213.3    587706.95   0.34010356   0.06053037          450           24          240 
 2134000        213.4    587648.13   0.33961182   0.06053037          450           24          240 
 2135000        213.5    587534.29   0.33911882   0.06053037          450           24          240 
 2136000        213.6     587450.2   0.33866363   0.06053037          450           24          240 
 2137000        213.7    587370.35    0.3382566   0.06053037          450           24          240 
 2138000        213.8    587296.14   0.33779601   0.06053037          450           24          240 
 2139000        213.9    587180.75   0.33727296   0.06053037          450           24          240 
 2140000          214    587056.61   0.33684775   0.06053037          450           24          240 
 2141000        214.1       586905   0.33639165   0.06053037          450           24          240 
 2142000        214.2    586796.07   0.33591027   0.06053037          450           24          240 
 2143000        214.3    586754.84   0.33555835   0.06053037          450           24          240 
 2144000        214.4    586735.79   0.33524781   0.06053037          450           24          240 
 2145000        214.5    586646.28   0.33489354   0.06053037          450           24          240 
 2146000        214.6    586641.34   0.33449682   0.06053037          450           24          240 
 2147000        214.7    586641.49   0.33407192   0.06053037          450           24          240 
 2148000        214.8    586652.27   0.33363959   0.06053037          450           24          240 
 2149000        214.9     586656.5   0.33315311   0.06053037          450           24          240 
 2150000          215    586673.31   0.33259444   0.06053037          450           24          240 
 2151000        215.1    586735.58   0.33213377   0.06053037          450           24          240 
 2152000        215.2    586780.93   0.33179855   0.06053037          450           24          240 
 2153000        215.3    586823.21   0.33145661   0.06053037          450           24          240 
 2154000        215.4    586879.08   0.33098297   0.06053037          450           24          240 
 2155000        215.5    587027.62   0.33053799   0.06053037          450           24          240 
 2156000        215.6    587187.23   0.33015756   0.06053037          450           24          240 
 2157000        215.7    587325.98    0.3297439   0.06053037          450           24          240 
 2158000        215.8    587559.05    0.3293881   0.06053037          450           24          240 
 2159000        215.9     587836.2   0.32902597   0.06053037          450           24          240 
 2160000          216    588133.22   0.32863306   0.06053037          450           24          240 
 2161000        216.1    588429.54   0.32826842   0.06053037          450           24          240 
 2162000        216.2     588681.3   0.32792605   0.06053037          450           24          240 
 2163000        216.3    588992.53   0.32762143   0.06053037          450           24          240 
 2164000        216.4    589273.43   0.32724054   0.06053037          450           24          240 
 2165000        216.5    589562.82   0.32691172   0.06053037          450           24          240 
 2166000        216.6    589876.97   0.32664575   0.06053037          450           24          240 
 2167000        216.7    590214.32   0.32631505   0.06053037          450           24          240 
 2168000        216.8     590509.5   0.32600031   0.06053037          450           24          240 
 2169000        216.9    590820.71   0.32572306   0.06053037          450           24          240 
 2170000          217    591004.31   0.32558608   0.06053037          450           24          240 
 2171000        217.1    591185.63   0.32532464   0.06053037          450           24          240 
 2172000        217.2    591374.04   0.32500987   0.06053037          450           24          240 
 2173000        217.3     591572.9   0.32470825   0.06053037          450           24          240 
 2174000        217.4    591722.66   0.32447975   0.06053037          450           24          240 
 2175000        217.5     591836.3   0.32429703   0.06053037          450           24          240 
 2176000        217.6    591946.62   0.32415469   0.06053037          450           24          240 
 2177000        217.7    592109.56   0.32397012   0.06053037          450           24          240 
 2178000        217.8    592341.61   0.32373541   0.06053037          450           24          240 
 2179000        217.9    592557.94   0.32347526   0.06053037          450           24          240 
 2180000          218    592770.37   0.32340873   0.06053037          450           24          240 
 2181000        218.1     592956.5   0.32340846   0.06053037          450           24          240 
 2182000        218.2    593078.93   0.32321189   0.06053037          450           24          240 
 2183000        218.3    593248.09   0.32308022   0.06053037          450           24          240 
 2184000        218.4    593351.39   0.32308175   0.06053037          450           24          240 
 2185000        218.5    593486.86   0.32296553   0.06053037          450           24          240 
 2186000        218.6    593572.22   0.32273775   0.06053037          450           24          240 
 2187000        218.7    593619.54   0.32264126   0.06053037          450           24          240 
 2188000        218.8     593667.5   0.32261037   0.06053037          450           24          240 
 2189000        218.9    593736.15    0.3226678   0.06053037          450           24          240 
 2190000          219    593841.47   0.32268537   0.06053037          450           24          240 
 2191000        219.1    593866.81    0.3227835   0.06053037          450           24          240 
 2192000        219.2    593970.92   0.32272524   0.06053037          450           24          240 
 2193000        219.3    594116.55   0.32260774   0.06053037          450           24          240 
 2194000        219.4    594238.22   0.32254252   0.06053037          450           24          240 
 2195000        219.5    594385.91   0.32257922   0.06053037          450           24          240 
 2196000        219.6    594526.67   0.32273864   0.06053037          450           24          240 
 2197000        219.7    594631.55   0.32285147   0.06053037          450           24          240 
 2198000        219.8    594697.17   0.32289709   0.06053037          450           24          240 
 2199000        219.9    594713.59   0.32308593   0.06053037          450           24          240 
 2200000          220    594753.83   0.32326814   0.06053037          450           24          240 
 2201000        220.1    594771.21   0.32334294   0.06053037          450           24          240 
 2202000        220.2    594771.51   0.32342485   0.06053037          450           24          240 
 2203000        220.3     594774.4   0.32353814   0.06053037          450           24          240 
 2204000        220.4    594756.69   0.32355925   0.06053037          450           24          240 
 2205000        220.5    594764.02   0.32367009   0.06053037          450           24          240 
 2206000        220.6     594753.4   0.32387782   0.06053037          450           24          240 
 2207000        220.7    594767.19   0.32407955   0.06053037          450           24          240 
 2208000        220.8    594733.96   0.32424947   0.06053037          450           24          240 
 2209000        220.9    594722.87    0.3243737   0.06053037          450           24          240 
 2210000          221    594748.73   0.32451734   0.06053037          450           24          240 
 2211000        221.1    594704.17   0.32484578   0.06053037          450           24          240 
 2212000        221.2    594632.72    0.3251478   0.06053037          450           24          240 
 2213000        221.3    594573.56   0.32536962   0.06053037          450           24          240 
 2214000        221.4    594467.34   0.32557991   0.06053037          450           24          240 
 2215000        221.5    594353.23   0.32584958   0.06053037          450           24          240 
 2216000        221.6    594286.75   0.32610178   0.06053037          450           24          240 
 2217000        221.7    594156.91   0.32636835   0.06053037          450           24          240 
 2218000        221.8    594005.43   0.32675014   0.06053037          450           24          240 
 2219000        221.9     593885.6   0.32714178   0.06053037          450           24          240 
 2220000          222    593816.55   0.32742248   0.06053037          450           24          240 
 2221000        222.1    593745.06   0.32766422   0.06053037          450           24          240 
 2222000        222.2    593599.24   0.32804162   0.06053037          450           24          240 
 2223000        222.3    593440.57   0.32843287   0.06053037          450           24          240 
 2224000        222.4    593402.62   0.32860342   0.06053037          450           24          240 
 2225000        222.5    593423.83   0.32893367   0.06053037          450           24          240 
 2226000        222.6     593446.6   0.32942042   0.06053037          450           24          240 
 2227000        222.7    593487.22   0.32982694   0.06053037          450           24          240 
 2228000        222.8    593544.21   0.33011861   0.06053037          450           24          240 
 2229000        222.9    593526.09   0.33047228   0.06053037          450           24          240 
 2230000          223    593558.43    0.3309079   0.06053037          450           24          240 
 2231000        223.1    593618.42   0.33129205   0.06053037          450           24          240 
 2232000        223.2    593695.97   0.33163813   0.06053037          450           24          240 
 2233000        223.3    593799.05   0.33211325   0.06053037          450           24          240 
 2234000        223.4    593838.33   0.33257213   0.06053037          450           24          240 
 2235000        223.5    593886.83   0.33298862   0.06053037          450           24          240 
 2236000        223.6    593955.14   0.33338127   0.06053037          450           24          240 
 2237000        223.7    594047.84    0.3338595   0.06053037          450           24          240 
 2238000        223.8    594082.53   0.33435464   0.06053037          450           24          240 
 2239000        223.9    594150.44   0.33473895   0.06053037          450           24          240 
 2240000          224    594283.15   0.33508701   0.06053037          450           24          240 
 2241000        224.1    594394.07   0.33549321   0.06053037          450           24          240 
 2242000        224.2    594535.21   0.33595972   0.06053037          450           24          240 
 2243000        224.3    594662.77   0.33653081   0.06053037          450           24          240 
 2244000        224.4    594862.68   0.33705959   0.06053037          450           24          240 
 2245000        224.5     595070.4   0.33755986   0.06053037          450           24          240 
 2246000        224.6    595314.49   0.33797168   0.06053037          450           24          240 
 2247000        224.7    595601.56   0.33828009   0.06053037          450           24          240 
 2248000        224.8    595838.37   0.33873537   0.06053037          450           24          240 
 2249000        224.9    596050.63   0.33920061   0.06053037          450           24          240 
 2250000          225    596250.53   0.33976812   0.06053037          450           24          240 
 2251000        225.1    596452.27   0.34028912   0.06053037          450           24          240 
 2252000        225.2    596653.82   0.34074453   0.06053037          450           24          240 
 2253000        225.3    596854.76    0.3411046   0.06053037          450           24          240 
 2254000        225.4    597051.25   0.34145419   0.06053037          450           24          240 
 2255000        225.5    597275.36   0.34187538   0.06053037          450           24          240 
 2256000        225.6    597520.26   0.34232012   0.06053037          450           24          240 
 2257000        225.7    597776.41   0.34271497   0.06053037          450           24          240 
 2258000        225.8    598063.69   0.34312996   0.06053037          450           24          240 
 2259000        225.9    598295.51   0.34343609   0.06053037          450           24          240 
 2260000          226    598451.15   0.34378785   0.06053037          450           24          240 
 2261000        226.1     598595.4   0.34420981   0.06053037          450           24          240 
 2262000        226.2    598748.28   0.34468147   0.06053037          450           24          240 
 2263000        226.3    598880.42    0.3451483   0.06053037          450           24          240 
 2264000        226.4     598973.6   0.34551084   0.06053037          450           24          240 
 2265000        226.5    599063.47   0.34577287   0.06053037          450           24          240 
 2266000        226.6    599169.02   0.34601337   0.06053037          450           24          240 
 2267000        226.7    599199.99   0.34621875   0.06053037          450           24          240 
 2268000        226.8    599229.59   0.34652184   0.06053037          450           24          240 
 2269000        226.9     599301.1   0.34681066   0.06053037          450           24          240 
 2270000          227    599437.22   0.34715031   0.06053037          450           24          240 
 2271000        227.1    599496.12   0.34751549   0.06053037          450           24          240 
 2272000        227.2    599554.94   0.34771236   0.06053037          450           24          240 
 2273000        227.3    599608.59    0.3479359   0.06053037          450           24          240 
 2274000        227.4    599653.47   0.34820033   0.06053037          450           24          240 
 2275000        227.5    599649.33   0.34839286   0.06053037          450           24          240 
 2276000        227.6    599642.18   0.34856661   0.06053037          450           24          240 
 2277000        227.7    599660.36   0.34868187   0.06053037          450           24          240 
 2278000        227.8    599646.46   0.34873879   0.06053037          450           24          240 
 2279000        227.9    599580.52   0.34885534   0.06053037          450           24          240 
 2280000          228    599474.04   0.34900319   0.06053037          450           24          240 
 2281000        228.1    599373.73   0.34901309   0.06053037          450           24          240 
 2282000        228.2    599293.58   0.34893949   0.06053037          450           24          240 
 2283000        228.3    599253.31   0.34911932   0.06053037          450           24          240 
 2284000        228.4     599128.6   0.34935694   0.06053037          450           24          240 
 2285000        228.5    598916.67   0.34930042   0.06053037          450           24          240 
 2286000        228.6    598656.97   0.34914484   0.06053037          450           24          240 
 2287000        228.7    598389.87   0.34904548   0.06053037          450           24          240 
 2288000        228.8    598161.48   0.34900908   0.06053037          450           24          240 
 2289000        228.9    597964.25   0.34900771   0.06053037          450           24          240 
 2290000          229    597753.92   0.34888032   0.06053037          450           24          240 
 2291000        229.1    597529.65   0.34866501   0.06053037          450           24          240 
 2292000        229.2    597308.36   0.34844929   0.06053037          450           24          240 
 2293000        229.3       597070   0.34829798   0.06053037          450           24          240 
 2294000        229.4    596775.69   0.34811471   0.06053037          450           24          240 
 2295000        229.5    596424.41   0.34783301   0.06053037          450           24          240 
 2296000        229.6    596137.24   0.34747249   0.06053037          450           24          240 
 2297000        229.7    595943.52   0.34707853   0.06053037          450           24          240 
 2298000        229.8    595663.84   0.34672556   0.06053037          450           24          240 
 2299000        229.9       595394   0.34635209   0.06053037          450           24          240 
 2300000          230    595138.58   0.34589968   0.06053037          450           24          240 
 2301000        230.1    594830.63   0.34537756   0.06053037          450           24          240 
 2302000        230.2    594570.05   0.34482498   0.06053037          450           24          240 
 2303000        230.3    594399.86   0.34425828   0.06053037          450           24          240 
 2304000        230.4    594234.58   0.34384245   0.06053037          450           24          240 
 2305000        230.5    594111.96   0.34329036   0.06053037          450           24          240 
 2306000        230.6    593975.03   0.34246538   0.06053037          450           24          240 
 2307000        230.7    593893.75   0.34179561   0.06053037          450           24          240 
 2308000        230.8    593837.25   0.34112288   0.06053037          450           24          240 
 2309000        230.9    593833.18   0.34020413   0.06053037          450           24          240 
 2310000          231    593813.93   0.33933679   0.06053037          450           24          240 
 2311000        231.1    593806.62   0.33851104   0.06053037          450           24          240 
 2312000        231.2    593824.32   0.33762252   0.06053037          450           24          240 
 2313000        231.3     593801.4    0.3366812   0.06053037          450           24          240 
 2314000        231.4    593837.19   0.33575465   0.06053037          450           24          240 
 2315000        231.5    593885.39   0.33475969   0.06053037          450           24          240 
 2316000        231.6    593901.53    0.3336252   0.06053037          450           24          240 
 2317000        231.7    593917.51   0.33246485   0.06053037          450           24          240 
 2318000        231.8    593997.46   0.33132238   0.06053037          450           24          240 
 2319000        231.9    594101.02    0.3301881   0.06053037          450           24          240 
 2320000          232    594207.67   0.32889889   0.06053037          450           24          240 
 2321000        232.1    594295.02   0.32758631   0.06053037          450           24          240 
 2322000        232.2    594387.11   0.32636559   0.06053037          450           24          240 
 2323000        232.3    594499.04   0.32493879   0.06053037          450           24          240 
 2324000        232.4    594630.31   0.32345885   0.06053037          450           24          240 
 2325000        232.5    594825.44   0.32196231   0.06053037          450           24          240 
 2326000        232.6    594996.38   0.32045109   0.06053037          450           24          240 
 2327000        232.7    595164.95   0.31893632   0.06053037          450           24          240 
 2328000        232.8    595370.23   0.31739057   0.06053037          450           24          240 
 2329000        232.9    595580.38   0.31571848   0.06053037          450           24          240 
 2330000          233    595764.63   0.31400672   0.06053037          450           24          240 
 2331000        233.1    595977.68   0.31233231   0.06053037          450           24          240 
 2332000        233.2     596214.9    0.3104651   0.06053037          450           24          240 
 2333000        233.3    596371.71   0.30855305   0.06053037          450           24          240 
 2334000        233.4    596544.88   0.30667448   0.06053037          450           24          240 
 2335000        233.5    596722.82   0.30484879   0.06053037          450           24          240 
 2336000        233.6     596931.8   0.30284383   0.06053037          450           24          240 
 2337000        233.7    597182.97   0.30081656   0.06053037          450           24          240 
 2338000        233.8    597403.76   0.29880151   0.06053037          450           24          240 
 2339000        233.9    597615.89    0.2967127   0.06053037          450           24          240 
 2340000          234    597827.03   0.29461419   0.06053037          450           24          240 
 2341000        234.1     598032.5   0.29232088   0.06053037          450           24          240 
 2342000        234.2    598212.25    0.2899021   0.06053037          450           24          240 
 2343000        234.3    598370.81   0.28757369   0.06053037          450           24          240 
 2344000        234.4    598521.78   0.28523834   0.06053037          450           24          240 
 2345000        234.5    598642.64   0.28288783   0.06053037          450           24          240 
 2346000        234.6    598679.55   0.28048607   0.06053037          450           24          240 
 2347000        234.7    598719.17   0.27791998   0.06053037          450           24          240 
 2348000        234.8    598734.61   0.27537101   0.06053037          450           24          240 
 2349000        234.9    598687.09    0.2728697   0.06053037          450           24          240 
 2350000          235    598660.31   0.27031563   0.06053037          450           24          240 
 2351000        235.1    598594.12   0.26765804   0.06053037          450           24          240 
 2352000        235.2    598517.79   0.26500611   0.06053037          450           24          240 
 2353000        235.3    598376.88   0.26233331   0.06053037          450           24          240 
 2354000        235.4    598254.34   0.25948288   0.06053037          450           24          240 
 2355000        235.5    598110.16   0.25668931   0.06053037          450           24          240 
 2356000        235.6    597987.75   0.25380774   0.06053037          450           24          240 
 2357000        235.7    597878.35   0.25091373   0.06053037          450           24          240 
 2358000        235.8    597738.64   0.24796466   0.06053037          450           24          240 
 2359000        235.9    597593.21   0.24506434   0.06053037          450           24          240 
 2360000          236    597444.32   0.24221917   0.06053037          450           24          240 
 2361000        236.1    597346.22    0.2391385   0.06053037          450           24          240 
 2362000        236.2    597324.78   0.23591926   0.06053037          450           24          240 
 2363000        236.3     597333.2   0.23281221   0.06053037          450           24          240 
 2364000        236.4     597289.7   0.22968607   0.06053037          450           24          240 
 2365000        236.5    597177.43   0.22652985   0.06053037          450           24          240 
 2366000        236.6    597029.35   0.22345663   0.06053037          450           24          240 
 2367000        236.7    596863.75   0.22035942   0.06053037          450           24          240 
 2368000        236.8    596669.95    0.2172773   0.06053037          450           24          240 
 2369000        236.9    596468.22   0.21402074   0.06053037          450           24          240 
 2370000          237    596301.98   0.21060535   0.06053037          450           24          240 
 2371000        237.1    596163.48    0.2073058   0.06053037          450           24          240 
 2372000        237.2    596058.89    0.2041504   0.06053037          450           24          240 
 2373000        237.3    595976.36   0.20074838   0.06053037          450           24          240 
 2374000        237.4    595815.37   0.19725915   0.06053037          450           24          240 
 2375000        237.5    595541.03   0.19396907   0.06053037          450           24          240 
 2376000        237.6    595248.37   0.19059562   0.06053037          450           24          240 
 2377000        237.7    594992.93   0.18725672   0.06053037          450           24          240 
 2378000        237.8    594734.66   0.18390477   0.06053037          450           24          240 
 2379000        237.9    594405.36   0.18032344   0.06053037          450           24          240 
 2380000          238    594052.72   0.17681377   0.06053037          450           24          240 
 2381000        238.1    593803.45   0.17338583   0.06053037          450           24          240 
 2382000        238.2     593569.5   0.17015499   0.06053037          450           24          240 
 2383000        238.3     593369.9   0.16683153   0.06053037          450           24          240 
 2384000        238.4    593104.94   0.16332536   0.06053037          450           24          240 
 2385000        238.5    592835.04   0.15979438   0.06053037          450           24          240 
 2386000        238.6    592613.19   0.15637233   0.06053037          450           24          240 
 2387000        238.7    592359.27   0.15299744   0.06053037          450           24          240 
 2388000        238.8    592179.08   0.14958551   0.06053037          450           24          240 
 2389000        238.9    591936.92   0.14620122   0.06053037          450           24          240 
 2390000          239    591640.69   0.14283984   0.06053037          450           24          240 
 2391000        239.1    591411.83   0.13943819   0.06053037          450           24          240 
 2392000        239.2    591270.62   0.13594063   0.06053037          450           24          240 
 2393000        239.3    591100.94   0.13264605   0.06053037          450           24          240 
 2394000        239.4    590909.45   0.12945003   0.06053037          450           24          240 
 2395000        239.5     590643.6   0.12619741   0.06053037          450           24          240 
 2396000        239.6    590326.96   0.12287631   0.06053037          450           24          240 
 2397000        239.7    589954.53   0.11964655   0.06053037          450           24          240 
 2398000        239.8    589568.27   0.11634354   0.06053037          450           24          240 
 2399000        239.9    589090.64   0.11310363   0.06053037          450           24          240 
 2400000          240    588642.98   0.10997409   0.06053037          450           24          240 
 2401000        240.1    588359.74   0.10680606   0.06053037          450           24          240 
 2402000        240.2    588122.41   0.10371722   0.06053037          450           24          240 
 2403000        240.3    587933.54    0.1006573   0.06053037          450           24          240 
 2404000        240.4    587787.33   0.09760645   0.06053037          450           24          240 
 2405000        240.5    587667.41  0.094630325   0.06053037          450           24          240 
 2406000        240.6    587562.89  0.091747379   0.06053037          450           24          240 
 2407000        240.7    587436.01  0.088817861   0.06053037          450           24          240 
 2408000        240.8    587239.19  0.085972854   0.06053037          450           24          240 
 2409000        240.9    587023.38  0.083259892   0.06053037          450           24          240 
 2410000          241    586790.44  0.080564941   0.06053037          450           24          240 
 2411000        241.1    586549.98  0.077938719   0.06053037          450           24          240 
 2412000        241.2    586399.84  0.075300795   0.06053037          450           24          240 
 2413000        241.3    586296.61  0.072670518   0.06053037          450           24          240 
 2414000        241.4    586188.59  0.070114802   0.06053037          450           24          240 
 2415000        241.5    586055.08  0.067642541   0.06053037          450           24          240 
 2416000        241.6    585964.77  0.065230792   0.06053037          450           24          240 
 2417000        241.7    585855.77  0.062878985   0.06053037          450           24          240 
 2418000        241.8    585857.88  0.060448049   0.06053037          450           24          240 
 2419000        241.9    585878.89   0.05828933   0.06053037          450           24          240 
 2420000          242    585919.92  0.056350311   0.06053037          450           24          240 
 2421000        242.1    585961.32   0.05430223   0.06053037          450           24          240 
 2422000        242.2    586016.29  0.052251096   0.06053037          450           24          240 
 2423000        242.3    586129.95  0.050345504   0.06053037          450           24          240 
 2424000        242.4    586268.16  0.048610479   0.06053037          450           24          240 
 2425000        242.5    586402.38  0.046896433   0.06053037          450           24          240 
 2426000        242.6    586493.09  0.045220536   0.06053037          450           24          240 
 2427000        242.7    586591.59  0.043730979   0.06053037          450           24          240 
 2428000        242.8    586753.35  0.042330575   0.06053037          450           24          240 
 2429000        242.9    586873.75  0.040886446   0.06053037          450           24          240 
 2430000          243    586981.04  0.039628995   0.06053037          450           24          240 
 2431000        243.1    587031.58  0.038473771   0.06053037          450           24          240 
 2432000        243.2    587052.55  0.037421983   0.06053037          450           24          240 
 2433000        243.3    587115.13  0.036490743   0.06053037          450           24          240 
 2434000        243.4    587264.16  0.035556387   0.06053037          450           24          240 
 2435000        243.5    587401.61  0.034720298   0.06053037          450           24          240 
 2436000        243.6    587532.54  0.034119237   0.06053037          450           24          240 
 2437000        243.7    587657.04  0.033536766   0.06053037          450           24          240 
 2438000        243.8    587744.35  0.033081263   0.06053037          450           24          240 
 2439000        243.9    587808.96   0.03289024   0.06053037          450           24          240 
 2440000          244    587879.87  0.032875123   0.06053037          450           24          240 
 2441000        244.1    587956.89  0.032952065   0.06053037          450           24          240 
 2442000        244.2    588085.94   0.03320133   0.06053037          450           24          240 
 2443000        244.3    588304.78  0.033568726   0.06053037          450           24          240 
 2444000        244.4     588568.5  0.034062151   0.06053037          450           24          240 
 2445000        244.5    588895.66   0.03464594   0.06053037          450           24          240 
 2446000        244.6    589242.58  0.035440731   0.06053037          450           24          240 
 2447000        244.7    589599.86  0.036335776   0.06053037          450           24          240 
 2448000        244.8    589951.42  0.037313365   0.06053037          450           24          240 
 2449000        244.9    590260.61  0.038321162   0.06053037          450           24          240 
 2450000          245    590535.31  0.039467952   0.06053037          450           24          240 
 2451000        245.1    590815.01  0.040653724   0.06053037          450           24          240 
 2452000        245.2    591085.65  0.041913015   0.06053037          450           24          240 
 2453000        245.3    591282.84  0.043326944   0.06053037          450           24          240 
 2454000        245.4     591531.9  0.044922644   0.06053037          450           24          240 
 2455000        245.5     591832.7  0.046612213   0.06053037          450           24          240 
 2456000        245.6    592112.46  0.048428895   0.06053037          450           24          240 
 2457000        245.7    592369.23  0.050131683   0.06053037          450           24          240 
 2458000        245.8    592625.51  0.051881913   0.06053037          450           24          240 
 2459000        245.9    592858.42  0.053870419   0.06053037          450           24          240 
 2460000          246    593055.29  0.055896059   0.06053037          450           24          240 
 2461000        246.1    593226.46  0.057937702   0.06053037          450           24          240 
 2462000        246.2     593359.6   0.06010379   0.06053037          450           24          240 
 2463000        246.3    593486.46  0.062399739   0.06053037          450           24          240 
 2464000        246.4    593599.88  0.064731616   0.06053037          450           24          240 
 2465000        246.5     593732.5  0.067099135   0.06053037          450           24          240 
 2466000        246.6    593958.08  0.069565287   0.06053037          450           24          240 
 2467000        246.7    594231.14  0.072085585   0.06053037          450           24          240 
 2468000        246.8    594553.15  0.074688609   0.06053037          450           24          240 
 2469000        246.9    594821.15  0.077344838   0.06053037          450           24          240 
 2470000          247    595090.36  0.080134066   0.06053037          450           24          240 
 2471000        247.1    595289.21  0.082875347   0.06053037          450           24          240 
 2472000        247.2    595529.31  0.085583808   0.06053037          450           24          240 
 2473000        247.3     595807.1  0.088386204   0.06053037          450           24          240 
 2474000        247.4    596059.89  0.091206972   0.06053037          450           24          240 
 2475000        247.5    596320.19  0.094076691   0.06053037          450           24          240 
 2476000        247.6     596627.1  0.097048008   0.06053037          450           24          240 
 2477000        247.7    596869.73   0.10009076   0.06053037          450           24          240 
 2478000        247.8    597086.02   0.10307704   0.06053037          450           24          240 
 2479000        247.9    597226.71    0.1060611   0.06053037          450           24          240 
 2480000          248     597378.6   0.10916478   0.06053037          450           24          240 
 2481000        248.1    597513.25   0.11243935   0.06053037          450           24          240 
 2482000        248.2    597673.03   0.11575728   0.06053037          450           24          240 
 2483000        248.3    597917.48   0.11902564   0.06053037          450           24          240 
 2484000        248.4    598157.61   0.12248986   0.06053037          450           24          240 
 2485000        248.5    598361.74   0.12575023   0.06053037          450           24          240 
 2486000        248.6    598557.52   0.12889663   0.06053037          450           24          240 
 2487000        248.7    598763.21     0.132201   0.06053037          450           24          240 
 2488000        248.8    599026.25   0.13550116   0.06053037          450           24          240 
 2489000        248.9    599293.92   0.13869405   0.06053037          450           24          240 
 2490000          249    599568.78   0.14197425   0.06053037          450           24          240 
 2491000        249.1    599832.06   0.14547688   0.06053037          450           24          240 
 2492000        249.2    600101.48   0.14890653   0.06053037          450           24          240 
 2493000        249.3    600347.97   0.15235561   0.06053037          450           24          240 
 2494000        249.4    600575.81    0.1557083   0.06053037          450           24          240 
 2495000        249.5    600835.93   0.15899041   0.06053037          450           24          240 
 2496000        249.6    601064.11     0.162559   0.06053037          450           24          240 
 2497000        249.7    601349.61   0.16601273   0.06053037          450           24          240 
 2498000        249.8    601704.73   0.16940344   0.06053037          450           24          240 
 2499000        249.9    602047.72   0.17282338   0.06053037          450           24          240 
 2500000          250    602322.02   0.17618723   0.06053037          450           24          240 
 2501000        250.1    602624.74   0.17953317   0.06053037          450           24          240 
 2502000        250.2    602850.63   0.18282935   0.06053037          450           24          240 
 2503000        250.3    603058.11   0.18630623   0.06053037          450           24          240 
 2504000        250.4     603273.1   0.18985137   0.06053037          450           24          240 
 2505000        250.5    603462.74   0.19323673   0.06053037          450           24          240 
 2506000        250.6    603649.65   0.19653417   0.06053037          450           24          240 
 2507000        250.7    603869.86   0.19992845   0.06053037          450           24          240 
 2508000        250.8    604073.94   0.20323711   0.06053037          450           24          240 
 2509000        250.9    604275.75   0.20654505   0.06053037          450           24          240 
 2510000          251    604547.26   0.20984271   0.06053037          450           24          240 
 2511000        251.1    604756.79   0.21303172   0.06053037          450           24          240 
 2512000        251.2    605003.17   0.21615519   0.06053037          450           24          240 
 2513000        251.3    605216.14   0.21945115   0.06053037          450           24          240 
 2514000        251.4    605447.08   0.22275404   0.06053037          450           24          240 
 2515000        251.5    605668.29    0.2259024   0.06053037          450           24          240 
 2516000        251.6     605804.8     0.229151   0.06053037          450           24          240 
 2517000        251.7    605949.95   0.23229873   0.06053037          450           24          240 
 2518000        251.8    606012.91   0.23540087   0.06053037          450           24          240 
 2519000        251.9    606110.85   0.23841682   0.06053037          450           24          240 
 2520000          252    606184.62   0.24139926   0.06053037          450           24          240 
 2521000        252.1    606254.26   0.24438214   0.06053037          450           24          240 
 2522000        252.2    606359.79   0.24722164   0.06053037          450           24          240 
 2523000        252.3    606471.95   0.25002889   0.06053037          450           24          240 
 2524000        252.4    606511.76   0.25304338   0.06053037          450           24          240 
 2525000        252.5    606507.97   0.25608514   0.06053037          450           24          240 
 2526000        252.6    606478.16   0.25892355   0.06053037          450           24          240 
 2527000        252.7    606462.68   0.26160938   0.06053037          450           24          240 
 2528000        252.8    606484.12   0.26428276   0.06053037          450           24          240 
 2529000        252.9    606449.74   0.26694563   0.06053037          450           24          240 
 2530000          253    606400.35   0.26964762   0.06053037          450           24          240 
 2531000        253.1     606336.2   0.27223621   0.06053037          450           24          240 
 2532000        253.2    606236.16   0.27482853   0.06053037          450           24          240 
 2533000        253.3    606137.63   0.27741254   0.06053037          450           24          240 
 2534000        253.4    606108.78   0.27992398   0.06053037          450           24          240 
 2535000        253.5    606049.25    0.2823828   0.06053037          450           24          240 
 2536000        253.6    606003.42   0.28483015   0.06053037          450           24          240 
 2537000        253.7     605925.2    0.2871885   0.06053037          450           24          240 
 2538000        253.8    605893.41   0.28940786   0.06053037          450           24          240 
 2539000        253.9    605867.13   0.29160661   0.06053037          450           24          240 
 2540000          254    605825.86   0.29377167   0.06053037          450           24          240 
 2541000        254.1    605797.62   0.29598452   0.06053037          450           24          240 
 2542000        254.2    605814.38   0.29811347   0.06053037          450           24          240 
 2543000        254.3    605841.17   0.30011495   0.06053037          450           24          240 
 2544000        254.4    605880.25   0.30213879   0.06053037          450           24          240 
 2545000        254.5    605909.64   0.30425752   0.06053037          450           24          240 
 2546000        254.6    605945.81   0.30630124   0.06053037          450           24          240 
 2547000        254.7    605883.09    0.3081201   0.06053037          450           24          240 
 2548000        254.8    605835.31   0.30990312   0.06053037          450           24          240 
 2549000        254.9    605854.51   0.31163444   0.06053037          450           24          240 
 2550000          255    605791.96    0.3134055   0.06053037          450           24          240 
 2551000        255.1    605720.86   0.31523698   0.06053037          450           24          240 
 2552000        255.2    605636.69   0.31701538   0.06053037          450           24          240 
 2553000        255.3    605489.97   0.31868115   0.06053037          450           24          240 
 2554000        255.4    605307.49    0.3203459   0.06053037          450           24          240 
 2555000        255.5     605148.5   0.32185833   0.06053037          450           24          240 
 2556000        255.6    604932.33   0.32324899   0.06053037          450           24          240 
 2557000        255.7    604685.51   0.32464221   0.06053037          450           24          240 
 2558000        255.8    604398.74   0.32600673   0.06053037          450           24          240 
 2559000        255.9    604168.03   0.32734581   0.06053037          450           24          240 
 2560000          256    603925.55   0.32865124   0.06053037          450           24          240 
 2561000        256.1    603679.13   0.32987562   0.06053037          450           24          240 
 2562000        256.2    603411.54   0.33104029   0.06053037          450           24          240 
 2563000        256.3    603093.34   0.33229356   0.06053037          450           24          240 
 2564000        256.4     602762.3   0.33354767   0.06053037          450           24          240 
 2565000        256.5    602400.99   0.33473794   0.06053037          450           24          240 
 2566000        256.6    602098.34   0.33566623   0.06053037          450           24          240 
 2567000        256.7    601774.35   0.33637245   0.06053037          450           24          240 
 2568000        256.8    601458.07   0.33731845   0.06053037          450           24          240 
 2569000        256.9       601172   0.33838404   0.06053037          450           24          240 
 2570000          257    600942.35   0.33929983   0.06053037          450           24          240 
 2571000        257.1    600790.49   0.34005661   0.06053037          450           24          240 
 2572000        257.2    600554.48   0.34078279   0.06053037          450           24          240 
 2573000        257.3    600258.33   0.34157315   0.06053037          450           24          240 
 2574000        257.4    599886.67   0.34225275   0.06053037          450           24          240 
 2575000        257.5       599557   0.34303541   0.06053037          450           24          240 
 2576000        257.6    599243.77   0.34380367   0.06053037          450           24          240 
 2577000        257.7    598934.72   0.34435033   0.06053037          450           24          240 
 2578000        257.8    598683.36   0.34481836   0.06053037          450           24          240 
 2579000        257.9    598408.42   0.34531937   0.06053037          450           24          240 
 2580000          258    598114.63   0.34589455   0.06053037          450           24          240 
 2581000        258.1    597836.48   0.34629469   0.06053037          450           24          240 
 2582000        258.2    597517.66   0.34669475   0.06053037          450           24          240 
 2583000        258.3    597219.04   0.34720461   0.06053037          450           24          240 
 2584000        258.4    596905.14   0.34760324   0.06053037          450           24          240 
 2585000        258.5    596567.53   0.34791362   0.06053037          450           24          240 
 2586000        258.6    596215.83   0.34824628   0.06053037          450           24          240 
 2587000        258.7    595870.91   0.34851399   0.06053037          450           24          240 
 2588000        258.8    595548.95   0.34876901   0.06053037          450           24          240 
 2589000        258.9    595254.47   0.34899057   0.06053037          450           24          240 
 2590000          259    594907.01   0.34915428   0.06053037          450           24          240 
 2591000        259.1    594560.19   0.34923431   0.06053037          450           24          240 
 2592000        259.2    594265.03   0.34933049   0.06053037          450           24          240 
 2593000        259.3    593954.33   0.34937271   0.06053037          450           24          240 
 2594000        259.4    593640.05   0.34944904   0.06053037          450           24          240 
 2595000        259.5    593299.22   0.34965978   0.06053037          450           24          240 
 2596000        259.6    592957.49   0.34967566   0.06053037          450           24          240 
 2597000        259.7     592677.4   0.34955767   0.06053037          450           24          240 
 2598000        259.8    592343.56   0.34955957   0.06053037          450           24          240 
 2599000        259.9    592095.76   0.34947439   0.06053037          450           24          240 
 2600000          260    591864.24    0.3494567   0.06053037          450           24          240 
 2601000        260.1    591640.77   0.34939842   0.06053037          450           24          240 
 2602000        260.2    591431.06   0.34925768   0.06053037          450           24          240 
 2603000        260.3    591259.91   0.34906405   0.06053037          450           24          240 
 2604000        260.4    591130.07   0.34886315   0.06053037          450           24          240 
 2605000        260.5    590980.73   0.34866481   0.06053037          450           24          240 
 2606000        260.6    590826.26   0.34857421   0.06053037          450           24          240 
 2607000        260.7    590649.98    0.3484669   0.06053037          450           24          240 
 2608000        260.8    590563.52    0.3480849   0.06053037          450           24          240 
 2609000        260.9    590466.61   0.34768553   0.06053037          450           24          240 
 2610000          261     590417.8   0.34745306   0.06053037          450           24          240 
 2611000        261.1    590291.14    0.3473286   0.06053037          450           24          240 
 2612000        261.2    590210.51   0.34704611   0.06053037          450           24          240 
 2613000        261.3     590127.3   0.34671573   0.06053037          450           24          240 
 2614000        261.4    590093.28   0.34634892   0.06053037          450           24          240 
 2615000        261.5    590073.08   0.34600292   0.06053037          450           24          240 
 2616000        261.6    589995.45   0.34568289   0.06053037          450           24          240 
 2617000        261.7    589839.48   0.34526314   0.06053037          450           24          240 
 2618000        261.8    589733.22   0.34491168   0.06053037          450           24          240 
 2619000        261.9    589555.93    0.3446168   0.06053037          450           24          240 
 2620000          262    589361.38   0.34423551   0.06053037          450           24          240 
 2621000        262.1     589211.4    0.3438519   0.06053037          450           24          240 
 2622000        262.2    589015.67   0.34356661   0.06053037          450           24          240 
 2623000        262.3    588855.28   0.34317567   0.06053037          450           24          240 
 2624000        262.4    588758.31   0.34260411   0.06053037          450           24          240 
 2625000        262.5    588665.23   0.34216664   0.06053037          450           24          240 
 2626000        262.6    588536.88   0.34181613   0.06053037          450           24          240 
 2627000        262.7    588290.81   0.34141968   0.06053037          450           24          240 
 2628000        262.8    587977.04   0.34094663   0.06053037          450           24          240 
 2629000        262.9    587569.19   0.34065557   0.06053037          450           24          240 
 2630000          263    587142.09   0.34031495   0.06053037          450           24          240 
 2631000        263.1    586762.27   0.33981475   0.06053037          450           24          240 
 2632000        263.2    586404.24   0.33930377   0.06053037          450           24          240 
 2633000        263.3    586070.54     0.338626   0.06053037          450           24          240 
 2634000        263.4    585747.73   0.33817503   0.06053037          450           24          240 
 2635000        263.5    585401.93   0.33778816   0.06053037          450           24          240 
 2636000        263.6    585105.33   0.33739868   0.06053037          450           24          240 
 2637000        263.7    584841.01    0.3370657   0.06053037          450           24          240 
 2638000        263.8     584565.6   0.33664083   0.06053037          450           24          240 
 2639000        263.9    584255.54   0.33619082   0.06053037          450           24          240 
 2640000          264    583988.15   0.33575675   0.06053037          450           24          240 
 2641000        264.1    583694.56   0.33528043   0.06053037          450           24          240 
 2642000        264.2    583418.38   0.33482415   0.06053037          450           24          240 
 2643000        264.3    583173.58   0.33442493   0.06053037          450           24          240 
 2644000        264.4    582938.09   0.33394322   0.06053037          450           24          240 
 2645000        264.5    582784.54   0.33354856   0.06053037          450           24          240 
 2646000        264.6    582636.19   0.33319588   0.06053037          450           24          240 
 2647000        264.7    582562.38   0.33276769   0.06053037          450           24          240 
 2648000        264.8    582484.78   0.33225264   0.06053037          450           24          240 
 2649000        264.9    582391.03   0.33169661   0.06053037          450           24          240 
 2650000          265    582327.35   0.33124643   0.06053037          450           24          240 
 2651000        265.1    582257.05   0.33093751   0.06053037          450           24          240 
 2652000        265.2    582225.26   0.33064331   0.06053037          450           24          240 
 2653000        265.3    582190.57   0.33018508   0.06053037          450           24          240 
 2654000        265.4    582153.81   0.32978532   0.06053037          450           24          240 
 2655000        265.5    582056.66   0.32942714   0.06053037          450           24          240 
 2656000        265.6    581992.45   0.32909238   0.06053037          450           24          240 
 2657000        265.7    581960.13   0.32880547   0.06053037          450           24          240 
 2658000        265.8    581913.78    0.3285402   0.06053037          450           24          240 
 2659000        265.9    581825.95   0.32823588   0.06053037          450           24          240 
 2660000          266    581790.74   0.32788692   0.06053037          450           24          240 
 2661000        266.1    581745.81   0.32756488   0.06053037          450           24          240 
 2662000        266.2    581717.56    0.3271174   0.06053037          450           24          240 
 2663000        266.3    581669.83   0.32671186   0.06053037          450           24          240 
 2664000        266.4    581653.91   0.32650008   0.06053037          450           24          240 
 2665000        266.5    581668.24   0.32635465   0.06053037          450           24          240 
 2666000        266.6    581704.11   0.32607535   0.06053037          450           24          240 
 2667000        266.7    581748.36   0.32580718   0.06053037          450           24          240 
 2668000        266.8    581785.48   0.32560276   0.06053037          450           24          240 
 2669000        266.9    581875.08   0.32529705   0.06053037          450           24          240 
 2670000          267    581953.53   0.32499129   0.06053037          450           24          240 
 2671000        267.1    582117.64   0.32480551   0.06053037          450           24          240 
 2672000        267.2    582295.64   0.32458507   0.06053037          450           24          240 
 2673000        267.3    582391.65   0.32440925   0.06053037          450           24          240 
 2674000        267.4    582492.68     0.324311   0.06053037          450           24          240 
 2675000        267.5    582579.05   0.32415078   0.06053037          450           24          240 
 2676000        267.6     582659.7   0.32390901   0.06053037          450           24          240 
 2677000        267.7     582722.1   0.32378996   0.06053037          450           24          240 
 2678000        267.8    582794.03   0.32366289   0.06053037          450           24          240 
 2679000        267.9     582925.4   0.32350525   0.06053037          450           24          240 
 2680000          268    582952.64   0.32343134   0.06053037          450           24          240 
 2681000        268.1    582957.85   0.32336431   0.06053037          450           24          240 
 2682000        268.2    582977.34    0.3232505   0.06053037          450           24          240 
 2683000        268.3    582975.34   0.32307628   0.06053037          450           24          240 
 2684000        268.4    582970.08   0.32294994   0.06053037          450           24          240 
 2685000        268.5    582926.54    0.3230902   0.06053037          450           24          240 
 2686000        268.6    582800.39   0.32316725   0.06053037          450           24          240 
 2687000        268.7    582701.26   0.32320402   0.06053037          450           24          240 
 2688000        268.8    582634.62   0.32323508   0.06053037          450           24          240 
 2689000        268.9    582583.29   0.32316704   0.06053037          450           24          240 
 2690000          269    582556.04   0.32314202   0.06053037          450           24          240 
 2691000        269.1    582499.57   0.32310326   0.06053037          450           24          240 
 2692000        269.2    582453.95   0.32318785   0.06053037          450           24          240 
 2693000        269.3    582352.46   0.32326208   0.06053037          450           24          240 
 2694000        269.4    582284.41   0.32328299   0.06053037          450           24          240 
 2695000        269.5    582269.22   0.32339564   0.06053037          450           24          240 
 2696000        269.6     582210.7   0.32352979   0.06053037          450           24          240 
 2697000        269.7    582149.06   0.32364264   0.06053037          450           24          240 
 2698000        269.8    582047.49   0.32364798   0.06053037          450           24          240 
 2699000        269.9    582001.42   0.32375155   0.06053037          450           24          240 
 2700000          270     581996.4   0.32401035   0.06053037          450           24          240 
 2701000        270.1    582018.55   0.32419403   0.06053037          450           24          240 
 2702000        270.2    582011.81   0.32427969   0.06053037          450           24          240 
 2703000        270.3    581933.96   0.32450963   0.06053037          450           24          240 
 2704000        270.4    581896.32   0.32478235   0.06053037          450           24          240 
 2705000        270.5    581844.46   0.32501429   0.06053037          450           24          240 
 2706000        270.6    581922.81    0.3252158   0.06053037          450           24          240 
 2707000        270.7    582037.77   0.32537262   0.06053037          450           24          240 
 2708000        270.8    582230.15   0.32553671   0.06053037          450           24          240 
 2709000        270.9    582412.72   0.32578646   0.06053037          450           24          240 
 2710000          271    582560.77   0.32621622   0.06053037          450           24          240 
 2711000        271.1    582613.88   0.32662383   0.06053037          450           24          240 
 2712000        271.2    582692.51   0.32685627   0.06053037          450           24          240 
 2713000        271.3    582769.29   0.32704755   0.06053037          450           24          240 
 2714000        271.4    582840.54   0.32732275   0.06053037          450           24          240 
 2715000        271.5    582855.95   0.32770094   0.06053037          450           24          240 
 2716000        271.6    582874.34   0.32820221   0.06053037          450           24          240 
 2717000        271.7    582858.72   0.32856542   0.06053037          450           24          240 
 2718000        271.8    582871.02    0.3287967   0.06053037          450           24          240 
 2719000        271.9     582902.3   0.32905406   0.06053037          450           24          240 
 2720000          272    582850.43   0.32934855   0.06053037          450           24          240 
 2721000        272.1    582821.32   0.32970462   0.06053037          450           24          240 
 2722000        272.2    582782.14   0.33014851   0.06053037          450           24          240 
 2723000        272.3    582758.57   0.33051383   0.06053037          450           24          240 
 2724000        272.4    582633.35   0.33094317   0.06053037          450           24          240 
 2725000        272.5     582563.1   0.33142258   0.06053037          450           24          240 
 2726000        272.6    582530.32   0.33176976   0.06053037          450           24          240 
 2727000        272.7    582484.46    0.3320655   0.06053037          450           24          240 
 2728000        272.8    582420.01   0.33240382   0.06053037          450           24          240 
 2729000        272.9    582288.61   0.33282119   0.06053037          450           24          240 
 2730000          273    582178.11    0.3333687   0.06053037          450           24          240 
 2731000        273.1    582023.14   0.33375988   0.06053037          450           24          240 
 2732000        273.2    581842.65   0.33408205   0.06053037          450           24          240 
 2733000        273.3    581603.03   0.33444199   0.06053037          450           24          240 
 2734000        273.4    581390.87   0.33491815   0.06053037          450           24          240 
 2735000        273.5    581218.69   0.33561417   0.06053037          450           24          240 
 2736000        273.6     581021.2   0.33612421   0.06053037          450           24          240 
 2737000        273.7       580858   0.33630895   0.06053037          450           24          240 
 2738000        273.8    580771.85   0.33663645   0.06053037          450           24          240 
 2739000        273.9    580779.35      0.33718   0.06053037          450           24          240 
 2740000          274    580693.99   0.33771349   0.06053037          450           24          240 
 2741000        274.1    580601.65   0.33813195   0.06053037          450           24          240 
 2742000        274.2    580506.43   0.33850863   0.06053037          450           24          240 
 2743000        274.3    580437.61   0.33891947   0.06053037          450           24          240 
 2744000        274.4    580401.18   0.33935606   0.06053037          450           24          240 
 2745000        274.5     580423.6   0.33982124   0.06053037          450           24          240 
 2746000        274.6    580454.73   0.34026007   0.06053037          450           24          240 
 2747000        274.7    580516.26   0.34066772   0.06053037          450           24          240 
 2748000        274.8    580682.37   0.34111286   0.06053037          450           24          240 
 2749000        274.9    580839.19   0.34142047   0.06053037          450           24          240 
 2750000          275    580913.55   0.34178026   0.06053037          450           24          240 
 2751000        275.1    581006.81   0.34238856   0.06053037          450           24          240 
 2752000        275.2    581158.29   0.34299092   0.06053037          450           24          240 
 2753000        275.3     581254.5   0.34336187   0.06053037          450           24          240 
 2754000        275.4    581406.18   0.34371764   0.06053037          450           24          240 
 2755000        275.5    581483.14   0.34408064   0.06053037          450           24          240 
 2756000        275.6    581573.14   0.34462959   0.06053037          450           24          240 
 2757000        275.7    581777.25   0.34504661   0.06053037          450           24          240 
 2758000        275.8    581994.69   0.34522842   0.06053037          450           24          240 
 2759000        275.9     582140.6   0.34549745   0.06053037          450           24          240 
 2760000          276    582356.26   0.34582932   0.06053037          450           24          240 
 2761000        276.1    582632.03   0.34608043   0.06053037          450           24          240 
 2762000        276.2    582896.23   0.34649761   0.06053037          450           24          240 
 2763000        276.3    583177.63   0.34694402   0.06053037          450           24          240 
 2764000        276.4    583491.89   0.34722862   0.06053037          450           24          240 
 2765000        276.5    583725.79   0.34745656   0.06053037          450           24          240 
 2766000        276.6    583965.07   0.34771172   0.06053037          450           24          240 
 2767000        276.7    584154.01   0.34789194   0.06053037          450           24          240 
 2768000        276.8    584219.38    0.3482315   0.06053037          450           24          240 
 2769000        276.9    584303.54   0.34858833   0.06053037          450           24          240 
 2770000          277    584377.29   0.34871722   0.06053037          450           24          240 
 2771000        277.1    584493.13   0.34880458   0.06053037          450           24          240 
 2772000        277.2    584556.68   0.34895559   0.06053037          450           24          240 
 2773000        277.3    584590.42   0.34925332   0.06053037          450           24          240 
 2774000        277.4    584662.65   0.34951303   0.06053037          450           24          240 
 2775000        277.5    584727.91   0.34955179   0.06053037          450           24          240 
 2776000        277.6    584664.85   0.34952098   0.06053037          450           24          240 
 2777000        277.7     584628.7   0.34947553   0.06053037          450           24          240 
 2778000        277.8    584572.52   0.34960398   0.06053037          450           24          240 
 2779000        277.9    584520.23   0.34978457   0.06053037          450           24          240 
 2780000          278    584415.71   0.34976645   0.06053037          450           24          240 
 2781000        278.1    584291.16   0.34971719   0.06053037          450           24          240 
 2782000        278.2    584211.69   0.34969074   0.06053037          450           24          240 
 2783000        278.3    584240.36   0.34949524   0.06053037          450           24          240 
 2784000        278.4    584295.58   0.34933951   0.06053037          450           24          240 
 2785000        278.5    584339.54   0.34935549   0.06053037          450           24          240 
 2786000        278.6    584412.05   0.34919688   0.06053037          450           24          240 
 2787000        278.7    584516.38   0.34898748   0.06053037          450           24          240 
 2788000        278.8    584625.23   0.34882511   0.06053037          450           24          240 
 2789000        278.9    584731.11     0.348517   0.06053037          450           24          240 
 2790000          279    584883.26   0.34810206   0.06053037          450           24          240 
 2791000        279.1    585010.35   0.34779842   0.06053037          450           24          240 
 2792000        279.2    585150.89   0.34753044   0.06053037          450           24          240 
 2793000        279.3    585325.33    0.3471411   0.06053037          450           24          240 
 2794000        279.4    585590.06    0.3467213   0.06053037          450           24          240 
 2795000        279.5    585852.28    0.3463784   0.06053037          450           24          240 
 2796000        279.6    586050.66   0.34593296   0.06053037          450           24          240 
 2797000        279.7    586204.68   0.34547177   0.06053037          450           24          240 
 2798000        279.8    586436.23   0.34474867   0.06053037          450           24          240 
 2799000        279.9    586682.69   0.34402122   0.06053037          450           24          240 
 2800000          280     586977.2   0.34355182   0.06053037          450           24          240 
 2801000        280.1    587272.62   0.34294515   0.06053037          450           24          240 
 2802000        280.2     587470.7   0.34219299   0.06053037          450           24          240 
 2803000        280.3    587657.47   0.34158118   0.06053037          450           24          240 
 2804000        280.4     587791.8   0.34088953   0.06053037          450           24          240 
 2805000        280.5    587947.66    0.3399513   0.06053037          450           24          240 
 2806000        280.6    588125.19   0.33905618   0.06053037          450           24          240 
 2807000        280.7    588290.53    0.3382152   0.06053037          450           24          240 
 2808000        280.8    588429.59   0.33725498   0.06053037          450           24          240 
 2809000        280.9    588602.07   0.33630394   0.06053037          450           24          240 
 2810000          281    588776.56   0.33535758   0.06053037          450           24          240 
 2811000        281.1    588958.96    0.3343776   0.06053037          450           24          240 
 2812000        281.2    589062.09   0.33320919   0.06053037          450           24          240 
 2813000        281.3    589127.04   0.33193469   0.06053037          450           24          240 
 2814000        281.4    589154.26   0.33065317   0.06053037          450           24          240 
 2815000        281.5    589232.51   0.32942848   0.06053037          450           24          240 
 2816000        281.6    589317.96   0.32821316   0.06053037          450           24          240 
 2817000        281.7    589461.19   0.32690079   0.06053037          450           24          240 
 2818000        281.8    589579.94   0.32566952   0.06053037          450           24          240 
 2819000        281.9    589683.76   0.32433143   0.06053037          450           24          240 
 2820000          282    589775.44   0.32285807   0.06053037          450           24          240 
 2821000        282.1    589849.15   0.32130987   0.06053037          450           24          240 
 2822000        282.2    589885.44   0.31966309   0.06053037          450           24          240 
 2823000        282.3    589930.26   0.31808774   0.06053037          450           24          240 
 2824000        282.4    589934.17   0.31656783   0.06053037          450           24          240 
 2825000        282.5    589951.31    0.3149339   0.06053037          450           24          240 
 2826000        282.6    590029.97   0.31313253   0.06053037          450           24          240 
 2827000        282.7    590098.49   0.31137686   0.06053037          450           24          240 
 2828000        282.8    590229.14   0.30946639   0.06053037          450           24          240 
 2829000        282.9     590372.9   0.30757209   0.06053037          450           24          240 
 2830000          283     590544.1    0.3056769   0.06053037          450           24          240 
 2831000        283.1    590754.96   0.30370336   0.06053037          450           24          240 
 2832000        283.2    590968.88   0.30171434   0.06053037          450           24          240 
 2833000        283.3    591232.82   0.29967631   0.06053037          450           24          240 
 2834000        283.4    591524.33   0.29754664   0.06053037          450           24          240 
 2835000        283.5    591812.68   0.29537978   0.06053037          450           24          240 
 2836000        283.6    592076.37   0.29320989   0.06053037          450           24          240 
 2837000        283.7    592314.95   0.29106816   0.06053037          450           24          240 
 2838000        283.8    592553.86   0.28884154   0.06053037          450           24          240 
 2839000        283.9    592849.34   0.28641545   0.06053037          450           24          240 
 2840000          284    593106.45   0.28394964   0.06053037          450           24          240 
 2841000        284.1    593388.14   0.28159631   0.06053037          450           24          240 
 2842000        284.2    593650.82   0.27912692   0.06053037          450           24          240 
 2843000        284.3    593853.29   0.27670629   0.06053037          450           24          240 
 2844000        284.4    594030.94    0.2742193   0.06053037          450           24          240 
 2845000        284.5    594189.03   0.27160328   0.06053037          450           24          240 
 2846000        284.6    594322.48   0.26891074   0.06053037          450           24          240 
 2847000        284.7    594493.51   0.26615896   0.06053037          450           24          240 
 2848000        284.8    594711.55   0.26348257   0.06053037          450           24          240 
 2849000        284.9    594907.81   0.26078654   0.06053037          450           24          240 
 2850000          285    595110.45   0.25798089   0.06053037          450           24          240 
 2851000        285.1    595349.67   0.25517932   0.06053037          450           24          240 
 2852000        285.2    595575.03    0.2522111   0.06053037          450           24          240 
 2853000        285.3    595820.39      0.24924   0.06053037          450           24          240 
 2854000        285.4    596062.89   0.24625638   0.06053037          450           24          240 
 2855000        285.5    596335.44   0.24331159   0.06053037          450           24          240 
 2856000        285.6    596582.67   0.24028334   0.06053037          450           24          240 
 2857000        285.7    596844.77   0.23717994   0.06053037          450           24          240 
 2858000        285.8    597112.51   0.23420008   0.06053037          450           24          240 
 2859000        285.9    597385.84   0.23112661   0.06053037          450           24          240 
 2860000          286    597683.54   0.22806927   0.06053037          450           24          240 
 2861000        286.1    597984.56   0.22493027   0.06053037          450           24          240 
 2862000        286.2    598221.53   0.22163034   0.06053037          450           24          240 
 2863000        286.3    598309.95   0.21825767   0.06053037          450           24          240 
 2864000        286.4    598393.71    0.2150495   0.06053037          450           24          240 
 2865000        286.5    598552.07   0.21188092   0.06053037          450           24          240 
 2866000        286.6    598753.86   0.20857057   0.06053037          450           24          240 
 2867000        286.7    598890.19   0.20525129   0.06053037          450           24          240 
 2868000        286.8    599044.06   0.20193765   0.06053037          450           24          240 
 2869000        286.9    599187.94   0.19856398   0.06053037          450           24          240 
 2870000          287    599349.18   0.19530705   0.06053037          450           24          240 
 2871000        287.1    599559.88   0.19200833   0.06053037          450           24          240 
 2872000        287.2    599698.93   0.18859803   0.06053037          450           24          240 
 2873000        287.3    599798.84    0.1851592   0.06053037          450           24          240 
 2874000        287.4    599857.69   0.18180448   0.06053037          450           24          240 
 2875000        287.5    599930.91   0.17835589   0.06053037          450           24          240 
 2876000        287.6       599993   0.17490701   0.06053037          450           24          240 
 2877000        287.7    600067.09   0.17151543   0.06053037          450           24          240 
 2878000        287.8     600169.1   0.16808268   0.06053037          450           24          240 
 2879000        287.9    600267.08   0.16465872   0.06053037          450           24          240 
 2880000          288     600459.3   0.16124103   0.06053037          450           24          240 
 2881000        288.1     600634.4   0.15783547   0.06053037          450           24          240 
 2882000        288.2     600879.9   0.15441551   0.06053037          450           24          240 
 2883000        288.3    601113.79   0.15087475   0.06053037          450           24          240 
 2884000        288.4     601387.3   0.14739472   0.06053037          450           24          240 
 2885000        288.5    601721.41   0.14405717   0.06053037          450           24          240 
 2886000        288.6    602057.76   0.14080264   0.06053037          450           24          240 
 2887000        288.7    602338.06   0.13733665   0.06053037          450           24          240 
 2888000        288.8    602590.54   0.13389182   0.06053037          450           24          240 
 2889000        288.9    602897.98   0.13065604   0.06053037          450           24          240 
 2890000          289    603216.35    0.1274225   0.06053037          450           24          240 
 2891000        289.1    603505.74   0.12415454   0.06053037          450           24          240 
 2892000        289.2    603788.79   0.12083362   0.06053037          450           24          240 
 2893000        289.3    604078.07   0.11764092   0.06053037          450           24          240 
 2894000        289.4    604370.93   0.11446643   0.06053037          450           24          240 
 2895000        289.5    604647.05   0.11116912   0.06053037          450           24          240 
 2896000        289.6    604936.45   0.10801051   0.06053037          450           24          240 
 2897000        289.7     605253.6   0.10492439   0.06053037          450           24          240 
 2898000        289.8    605519.77   0.10184799   0.06053037          450           24          240 
 2899000        289.9    605848.11  0.098771903   0.06053037          450           24          240 
 2900000          290    606236.59  0.095782435   0.06053037          450           24          240 
 2901000        290.1    606588.58  0.092816408   0.06053037          450           24          240 
 2902000        290.2    606884.38  0.089875154   0.06053037          450           24          240 
 2903000        290.3    607279.42  0.086858732   0.06053037          450           24          240 
 2904000        290.4    607664.78  0.083951134   0.06053037          450           24          240 
 2905000        290.5    608062.33   0.08118961   0.06053037          450           24          240 
 2906000        290.6    608443.67  0.078496653   0.06053037          450           24          240 
 2907000        290.7    608777.05  0.075775632   0.06053037          450           24          240 
 2908000        290.8     609046.9  0.073191316   0.06053037          450           24          240 
 2909000        290.9    609241.84   0.07061324   0.06053037          450           24          240 
 2910000          291    609463.82  0.068074138   0.06053037          450           24          240 
 2911000        291.1    609697.61  0.065725755   0.06053037          450           24          240 
 2912000        291.2    609835.99  0.063320725   0.06053037          450           24          240 
 2913000        291.3    609963.35  0.061017237   0.06053037          450           24          240 
 2914000        291.4    610070.17  0.058860511   0.06053037          450           24          240 
 2915000        291.5    610166.11  0.056809682   0.06053037          450           24          240 
 2916000        291.6    610150.88  0.054702652   0.06053037          450           24          240 
 2917000        291.7    610151.16  0.052652175   0.06053037          450           24          240 
 2918000        291.8    610149.92    0.0506175   0.06053037          450           24          240 
 2919000        291.9    610170.02  0.048742292   0.06053037          450           24          240 
 2920000          292    610215.38  0.047067045   0.06053037          450           24          240 
 2921000        292.1    610265.03  0.045404889   0.06053037          450           24          240 
 2922000        292.2    610197.12   0.04381189   0.06053037          450           24          240 
 2923000        292.3    610032.19   0.04239467   0.06053037          450           24          240 
 2924000        292.4    609836.62  0.041057434   0.06053037          450           24          240 
 2925000        292.5     609644.7  0.039663264   0.06053037          450           24          240 
 2926000        292.6    609445.92  0.038436981   0.06053037          450           24          240 
 2927000        292.7    609281.05  0.037349616   0.06053037          450           24          240 
 2928000        292.8    609061.99  0.036334899   0.06053037          450           24          240 
 2929000        292.9    608792.35  0.035436334   0.06053037          450           24          240 
 2930000          293    608469.77  0.034488698   0.06053037          450           24          240 
 2931000        293.1    608202.33  0.033603832   0.06053037          450           24          240 
 2932000        293.2    607938.39   0.03298588   0.06053037          450           24          240 
 2933000        293.3    607604.78    0.0328045   0.06053037          450           24          240 
 2934000        293.4    607180.36  0.032632706   0.06053037          450           24          240 
 2935000        293.5    606746.98  0.032524841   0.06053037          450           24          240 
 2936000        293.6    606328.77  0.032446915   0.06053037          450           24          240 
 2937000        293.7    605908.57  0.032434013   0.06053037          450           24          240 
 2938000        293.8    605547.29  0.032663312   0.06053037          450           24          240 
 2939000        293.9    605170.31   0.03323252   0.06053037          450           24          240 
 2940000          294    604789.14  0.033940825   0.06053037          450           24          240 
 2941000        294.1    604346.64  0.034677398   0.06053037          450           24          240 
 2942000        294.2    603922.49  0.035361323   0.06053037          450           24          240 
 2943000        294.3    603477.71  0.036123243   0.06053037          450           24          240 
 2944000        294.4    603011.34  0.037186842   0.06053037          450           24          240 
 2945000        294.5    602529.35  0.038337095   0.06053037          450           24          240 
 2946000        294.6    602035.37  0.039513667   0.06053037          450           24          240 
 2947000        294.7    601494.42  0.040865704   0.06053037          450           24          240 
 2948000        294.8    601018.23  0.042270067   0.06053037          450           24          240 
 2949000        294.9    600545.97  0.043685168   0.06053037          450           24          240 
 2950000          295    600127.32  0.045257085   0.06053037          450           24          240 
 2951000        295.1    599678.24  0.046966122   0.06053037          450           24          240 
 2952000        295.2    599239.19  0.048827569   0.06053037          450           24          240 
 2953000        295.3    598810.14  0.050659082   0.06053037          450           24          240 
 2954000        295.4     598420.3  0.052504731   0.06053037          450           24          240 
 2955000        295.5    597957.53  0.054463206   0.06053037          450           24          240 
 2956000        295.6       597448  0.056565699   0.06053037          450           24          240 
 2957000        295.7    596975.37  0.058620624   0.06053037          450           24          240 
 2958000        295.8     596556.9  0.060902611   0.06053037          450           24          240 
 2959000        295.9    596228.05  0.063140516   0.06053037          450           24          240 
 2960000          296       595936  0.065502248   0.06053037          450           24          240 
 2961000        296.1    595653.27  0.068132534   0.06053037          450           24          240 
 2962000        296.2    595330.79  0.070727384   0.06053037          450           24          240 
 2963000        296.3    594934.35  0.073243335   0.06053037          450           24          240 
 2964000        296.4    594500.07  0.075819779   0.06053037          450           24          240 
 2965000        296.5    594019.48   0.07853797   0.06053037          450           24          240 
 2966000        296.6    593522.29  0.081230203   0.06053037          450           24          240 
 2967000        296.7    593120.64  0.083935111   0.06053037          450           24          240 
 2968000        296.8    592694.25  0.086804144   0.06053037          450           24          240 
 2969000        296.9    592298.74  0.089635662   0.06053037          450           24          240 
 2970000          297    591928.04  0.092583808   0.06053037          450           24          240 
 2971000        297.1    591561.89   0.09573266   0.06053037          450           24          240 
 2972000        297.2    591210.89  0.098765077   0.06053037          450           24          240 
 2973000        297.3    590901.18   0.10159121   0.06053037          450           24          240 
 2974000        297.4    590576.36    0.1045562   0.06053037          450           24          240 
 2975000        297.5     590245.5   0.10765683   0.06053037          450           24          240 
 2976000        297.6    589934.95    0.1108913   0.06053037          450           24          240 
 2977000        297.7    589635.95   0.11429167   0.06053037          450           24          240 
 2978000        297.8     589325.2   0.11751682   0.06053037          450           24          240 
 2979000        297.9    589093.02   0.12072036   0.06053037          450           24          240 
 2980000          298    588941.41   0.12397046   0.06053037          450           24          240 
 2981000        298.1    588699.52   0.12718654   0.06053037          450           24          240 
 2982000        298.2    588488.56   0.13050089   0.06053037          450           24          240 
 2983000        298.3    588259.29   0.13388052   0.06053037          450           24          240 
 2984000        298.4    587988.59   0.13726621   0.06053037          450           24          240 
 2985000        298.5    587704.88   0.14057769   0.06053037          450           24          240 
 2986000        298.6    587464.88   0.14396355   0.06053037          450           24          240 
 2987000        298.7    587216.47   0.14745774   0.06053037          450           24          240 
 2988000        298.8    586865.63   0.15095007   0.06053037          450           24          240 
 2989000        298.9    586530.42   0.15430547   0.06053037          450           24          240 
 2990000          299    586247.72   0.15755793   0.06053037          450           24          240 
 2991000        299.1    586037.21   0.16099942   0.06053037          450           24          240 
 2992000        299.2    585835.72   0.16450148   0.06053037          450           24          240 
 2993000        299.3    585610.97   0.16784565   0.06053037          450           24          240 
 2994000        299.4    585328.86   0.17121673   0.06053037          450           24          240 
 2995000        299.5    585130.16    0.1746917   0.06053037          450           24          240 
 2996000        299.6    584872.62   0.17812145   0.06053037          450           24          240 
 2997000        299.7    584621.48   0.18159998   0.06053037          450           24          240 
 2998000        299.8    584405.79   0.18507504   0.06053037          450           24          240 
 2999000        299.9    584141.81   0.18842371   0.06053037          450           24          240 
 3000000          300    583826.39   0.19175385   0.06053037          450           24          240 
 3001000        300.1    583499.84    0.1951269   0.06053037          450           24          240 
 3002000        300.2    583216.45   0.19846617   0.06053037          450           24          240 
 3003000        300.3    582977.08   0.20173787   0.06053037          450           24          240 
 3004000        300.4    582791.07   0.20503912   0.06053037          450           24          240 
 3005000        300.5    582648.16   0.20827793   0.06053037          450           24          240 
 3006000        300.6    582514.23   0.21148139   0.06053037          450           24          240 
 3007000        300.7    582330.19   0.21479263   0.06053037          450           24          240 
 3008000        300.8     582147.9   0.21819845   0.06053037          450           24          240 
 3009000        300.9    582000.53   0.22137259   0.06053037          450           24          240 
 3010000          301    581937.94   0.22434437   0.06053037          450           24          240 
 3011000        301.1    581927.13   0.22741704   0.06053037          450           24          240 
 3012000        301.2    581842.57   0.23059306   0.06053037          450           24          240 
 3013000        301.3     581697.2   0.23367634   0.06053037          450           24          240 
 3014000        301.4    581590.75   0.23681725   0.06053037          450           24          240 
 3015000        301.5    581569.26   0.23983853   0.06053037          450           24          240 
 3016000        301.6    581579.33   0.24274717   0.06053037          450           24          240 
 3017000        301.7    581577.35   0.24558866   0.06053037          450           24          240 
 3018000        301.8    581625.52   0.24850873   0.06053037          450           24          240 
 3019000        301.9    581664.97   0.25149803   0.06053037          450           24          240 
 3020000          302     581734.3   0.25440755   0.06053037          450           24          240 
 3021000        302.1    581832.48     0.257139   0.06053037          450           24          240 
 3022000        302.2    581911.74    0.2597635   0.06053037          450           24          240 
 3023000        302.3    582037.49   0.26253275   0.06053037          450           24          240 
 3024000        302.4    582178.47   0.26527325   0.06053037          450           24          240 
 3025000        302.5    582360.83   0.26788456   0.06053037          450           24          240 
 3026000        302.6    582487.14   0.27048203   0.06053037          450           24          240 
 3027000        302.7    582633.52   0.27308627   0.06053037          450           24          240 
 3028000        302.8    582736.65    0.2756215   0.06053037          450           24          240 
 3029000        302.9    582823.86   0.27808977   0.06053037          450           24          240 
 3030000          303    582919.39   0.28046292   0.06053037          450           24          240 
 3031000        303.1    582974.73   0.28288943   0.06053037          450           24          240 
 3032000        303.2    583011.07   0.28532437   0.06053037          450           24          240 
 3033000        303.3    583028.54     0.287644   0.06053037          450           24          240 
 3034000        303.4    583067.03   0.28991951   0.06053037          450           24          240 
 3035000        303.5     583096.8   0.29222388   0.06053037          450           24          240 
 3036000        303.6    583068.89   0.29440127   0.06053037          450           24          240 
 3037000        303.7    582984.24    0.2964426   0.06053037          450           24          240 
 3038000        303.8    582874.05   0.29848092   0.06053037          450           24          240 
 3039000        303.9    582690.58   0.30051642   0.06053037          450           24          240 
 3040000          304    582520.42   0.30249317   0.06053037          450           24          240 
 3041000        304.1     582336.3   0.30444203   0.06053037          450           24          240 
 3042000        304.2    582171.33    0.3064227   0.06053037          450           24          240 
 3043000        304.3    581972.91   0.30832629   0.06053037          450           24          240 
 3044000        304.4    581780.72   0.31006688   0.06053037          450           24          240 
 3045000        304.5     581609.1   0.31173741   0.06053037          450           24          240 
 3046000        304.6    581387.73   0.31334651   0.06053037          450           24          240 
 3047000        304.7    581159.54   0.31504294   0.06053037          450           24          240 
 3048000        304.8    580953.95   0.31672404   0.06053037          450           24          240 
 3049000        304.9    580812.17   0.31837564   0.06053037          450           24          240 
 3050000          305     580668.9   0.32000356   0.06053037          450           24          240 
 3051000        305.1    580526.02   0.32151529   0.06053037          450           24          240 
 3052000        305.2    580316.43   0.32287919   0.06053037          450           24          240 
 3053000        305.3    580067.01   0.32425181   0.06053037          450           24          240 
 3054000        305.4    579825.11   0.32559866   0.06053037          450           24          240 
 3055000        305.5    579612.08   0.32684414   0.06053037          450           24          240 
 3056000        305.6    579351.17   0.32816843   0.06053037          450           24          240 
 3057000        305.7    579060.65   0.32945449   0.06053037          450           24          240 
 3058000        305.8    578776.15   0.33069544   0.06053037          450           24          240 
 3059000        305.9    578455.31   0.33180087   0.06053037          450           24          240 
 3060000          306    578118.24   0.33275627   0.06053037          450           24          240 
 3061000        306.1     577765.5   0.33381499   0.06053037          450           24          240 
 3062000        306.2    577421.06   0.33480649   0.06053037          450           24          240 
 3063000        306.3    577100.71   0.33576667   0.06053037          450           24          240 
 3064000        306.4    576755.15   0.33678832   0.06053037          450           24          240 
 3065000        306.5    576373.49   0.33774429   0.06053037          450           24          240 
 3066000        306.6    576042.68   0.33862875   0.06053037          450           24          240 
 3067000        306.7    575707.59   0.33936279   0.06053037          450           24          240 
 3068000        306.8    575354.82   0.34011599   0.06053037          450           24          240 
 3069000        306.9    575002.83   0.34082605   0.06053037          450           24          240 
 3070000          307    574692.32   0.34143403   0.06053037          450           24          240 
 3071000        307.1    574458.37   0.34211723   0.06053037          450           24          240 
 3072000        307.2    574147.41   0.34268896   0.06053037          450           24          240 
 3073000        307.3    573861.89   0.34321229   0.06053037          450           24          240 
 3074000        307.4    573570.32   0.34369903   0.06053037          450           24          240 
 3075000        307.5     573360.6   0.34408225   0.06053037          450           24          240 
 3076000        307.6    573169.37   0.34470122   0.06053037          450           24          240 
 3077000        307.7     572950.3   0.34532912   0.06053037          450           24          240 
 3078000        307.8    572764.09   0.34569954   0.06053037          450           24          240 
 3079000        307.9     572587.3   0.34592909   0.06053037          450           24          240 
 3080000          308    572406.63   0.34610034   0.06053037          450           24          240 
 3081000        308.1    572150.93   0.34631482   0.06053037          450           24          240 
 3082000        308.2    572018.67    0.3465475   0.06053037          450           24          240 
 3083000        308.3    571900.79   0.34672413   0.06053037          450           24          240 
 3084000        308.4    571734.51   0.34700886   0.06053037          450           24          240 
 3085000        308.5    571577.11   0.34729739   0.06053037          450           24          240 
 3086000        308.6    571474.36   0.34753876   0.06053037          450           24          240 
 3087000        308.7    571372.74   0.34763893   0.06053037          450           24          240 
 3088000        308.8    571260.24    0.3475927   0.06053037          450           24          240 
 3089000        308.9     571185.8   0.34758527   0.06053037          450           24          240 
 3090000          309    571098.64   0.34770914   0.06053037          450           24          240 
 3091000        309.1    570948.15   0.34780056   0.06053037          450           24          240 
 3092000        309.2    570830.64   0.34778135   0.06053037          450           24          240 
 3093000        309.3    570723.82   0.34767877   0.06053037          450           24          240 
 3094000        309.4    570548.41   0.34775519   0.06053037          450           24          240 
 3095000        309.5    570366.73   0.34781967   0.06053037          450           24          240 
 3096000        309.6    570199.02   0.34763844   0.06053037          450           24          240 
 3097000        309.7    570006.42   0.34747022   0.06053037          450           24          240 
 3098000        309.8    569844.91   0.34736718   0.06053037          450           24          240 
 3099000        309.9    569607.51   0.34723341   0.06053037          450           24          240 
 3100000          310    569354.35   0.34703629   0.06053037          450           24          240 
 3101000        310.1    569093.63   0.34685855   0.06053037          450           24          240 
 3102000        310.2    568876.74   0.34667472   0.06053037          450           24          240 
 3103000        310.3    568684.24   0.34639524   0.06053037          450           24          240 
 3104000        310.4    568490.04    0.3460682   0.06053037          450           24          240 
 3105000        310.5    568285.62   0.34568135   0.06053037          450           24          240 
 3106000        310.6    568105.05   0.34536027   0.06053037          450           24          240 
 3107000        310.7    567934.22    0.3451462   0.06053037          450           24          240 
 3108000        310.8    567762.07   0.34490046   0.06053037          450           24          240 
 3109000        310.9    567556.34   0.34462022   0.06053037          450           24          240 
 3110000          311    567403.16   0.34421416   0.06053037          450           24          240 
 3111000        311.1    567274.27   0.34381082   0.06053037          450           24          240 
 3112000        311.2    567190.46   0.34351559   0.06053037          450           24          240 
 3113000        311.3    567142.99   0.34314051   0.06053037          450           24          240 
 3114000        311.4    567042.31   0.34272157   0.06053037          450           24          240 
 3115000        311.5    566964.96   0.34224068   0.06053037          450           24          240 
 3116000        311.6    566953.38   0.34175311   0.06053037          450           24          240 
 3117000        311.7    566951.47    0.3412997   0.06053037          450           24          240 
 3118000        311.8    567017.41    0.3409601   0.06053037          450           24          240 
 3119000        311.9    567154.68   0.34050677   0.06053037          450           24          240 
 3120000          312    567297.63   0.33999792   0.06053037          450           24          240 
 3121000        312.1    567459.77   0.33952177   0.06053037          450           24          240 
 3122000        312.2    567542.36   0.33906009   0.06053037          450           24          240 
 3123000        312.3    567601.34   0.33859894   0.06053037          450           24          240 
 3124000        312.4     567693.5   0.33813161   0.06053037          450           24          240 
 3125000        312.5    567776.11    0.3376599   0.06053037          450           24          240 
 3126000        312.6    567881.65   0.33720356   0.06053037          450           24          240 
 3127000        312.7    568018.98    0.3367338   0.06053037          450           24          240 
 3128000        312.8    568161.59   0.33632051   0.06053037          450           24          240 
 3129000        312.9    568217.67   0.33596275   0.06053037          450           24          240 
 3130000          313    568193.11   0.33554265   0.06053037          450           24          240 
 3131000        313.1    568136.24   0.33498549   0.06053037          450           24          240 
 3132000        313.2    568087.78   0.33435098   0.06053037          450           24          240 
 3133000        313.3    568049.96   0.33377381   0.06053037          450           24          240 
 3134000        313.4    568109.69   0.33330696   0.06053037          450           24          240 
 3135000        313.5    568189.63   0.33287408   0.06053037          450           24          240 
 3136000        313.6    568301.88   0.33245183   0.06053037          450           24          240 
 3137000        313.7     568344.1   0.33205061   0.06053037          450           24          240 
 3138000        313.8    568284.98    0.3315813   0.06053037          450           24          240 
 3139000        313.9    568191.66   0.33110811   0.06053037          450           24          240 
 3140000          314    568169.87   0.33061153   0.06053037          450           24          240 
 3141000        314.1    568125.62   0.33017638   0.06053037          450           24          240 
 3142000        314.2    568053.41   0.32977533   0.06053037          450           24          240 
 3143000        314.3    568010.55   0.32932689   0.06053037          450           24          240 
 3144000        314.4    567940.39   0.32891064   0.06053037          450           24          240 
 3145000        314.5    567847.14   0.32850517   0.06053037          450           24          240 
 3146000        314.6    567779.25    0.3279971   0.06053037          450           24          240 
 3147000        314.7    567687.94   0.32749772   0.06053037          450           24          240 
 3148000        314.8    567589.79   0.32698337   0.06053037          450           24          240 
 3149000        314.9    567566.89    0.3266331   0.06053037          450           24          240 
 3150000          315    567544.67   0.32640569   0.06053037          450           24          240 
 3151000        315.1    567521.23   0.32619166   0.06053037          450           24          240 
 3152000        315.2    567473.78   0.32576413   0.06053037          450           24          240 
 3153000        315.3    567394.89   0.32535073   0.06053037          450           24          240 
 3154000        315.4    567336.88   0.32496033   0.06053037          450           24          240 
 3155000        315.5    567237.43   0.32453131   0.06053037          450           24          240 
 3156000        315.6    567157.31   0.32420459   0.06053037          450           24          240 
 3157000        315.7    567043.07   0.32392864   0.06053037          450           24          240 
 3158000        315.8    566949.85   0.32363611   0.06053037          450           24          240 
 3159000        315.9    566836.29   0.32332637   0.06053037          450           24          240 
 3160000          316    566746.22    0.3230444   0.06053037          450           24          240 
 3161000        316.1    566638.59   0.32280864   0.06053037          450           24          240 
 3162000        316.2    566481.69   0.32252728   0.06053037          450           24          240 
 3163000        316.3    566366.51   0.32225027   0.06053037          450           24          240 
 3164000        316.4    566263.71   0.32195125   0.06053037          450           24          240 
 3165000        316.5    566103.58   0.32164115   0.06053037          450           24          240 
 3166000        316.6    566014.48   0.32144593   0.06053037          450           24          240 
 3167000        316.7    565880.77   0.32125121   0.06053037          450           24          240 
 3168000        316.8    565824.08   0.32106294   0.06053037          450           24          240 
 3169000        316.9    565745.37   0.32084447   0.06053037          450           24          240 
 3170000          317    565670.46   0.32068664   0.06053037          450           24          240 
 3171000        317.1    565554.13   0.32051595   0.06053037          450           24          240 
 3172000        317.2    565484.86   0.32028655   0.06053037          450           24          240 
 3173000        317.3    565420.57   0.32016525   0.06053037          450           24          240 
 3174000        317.4    565346.15   0.32006949   0.06053037          450           24          240 
 3175000        317.5    565244.07   0.31988441   0.06053037          450           24          240 
 3176000        317.6    565187.96   0.31968748   0.06053037          450           24          240 
 3177000        317.7    565171.89   0.31955219   0.06053037          450           24          240 
 3178000        317.8    565076.91   0.31958006   0.06053037          450           24          240 
 3179000        317.9     564997.2   0.31958391   0.06053037          450           24          240 
 3180000          318     564947.9    0.3195358   0.06053037          450           24          240 
 3181000        318.1    564889.81   0.31953116   0.06053037          450           24          240 
 3182000        318.2    564769.86   0.31946453   0.06053037          450           24          240 
 3183000        318.3    564612.06   0.31944791   0.06053037          450           24          240 
 3184000        318.4    564447.14   0.31946142   0.06053037          450           24          240 
 3185000        318.5     564321.1   0.31944252   0.06053037          450           24          240 
 3186000        318.6    564157.87   0.31948934   0.06053037          450           24          240 
 3187000        318.7    563928.03    0.3196301   0.06053037          450           24          240 
 3188000        318.8    563679.64   0.31976166   0.06053037          450           24          240 
 3189000        318.9    563459.45   0.31973512   0.06053037          450           24          240 
 3190000          319     563281.6   0.31964827   0.06053037          450           24          240 
 3191000        319.1    563100.16   0.31975881   0.06053037          450           24          240 
 3192000        319.2    562991.44   0.31996883   0.06053037          450           24          240 
 3193000        319.3    562895.54   0.32011663   0.06053037          450           24          240 
 3194000        319.4    562808.34   0.32025267   0.06053037          450           24          240 
 3195000        319.5    562720.08   0.32044574   0.06053037          450           24          240 
 3196000        319.6    562633.95   0.32070211   0.06053037          450           24          240 
 3197000        319.7    562501.61   0.32098902   0.06053037          450           24          240 
 3198000        319.8    562350.24   0.32109812   0.06053037          450           24          240 
 3199000        319.9    562163.13   0.32120457   0.06053037          450           24          240 
 3200000          320    561978.06   0.32141471   0.06053037          450           24          240 
 3201000        320.1    561754.37   0.32171303   0.06053037          450           24          240 
 3202000        320.2    561561.06    0.3220252   0.06053037          450           24          240 
 3203000        320.3    561415.23   0.32217918   0.06053037          450           24          240 
 3204000        320.4    561282.33   0.32234117   0.06053037          450           24          240 
 3205000        320.5     561116.5   0.32260896   0.06053037          450           24          240 
 3206000        320.6    560990.09   0.32296345   0.06053037          450           24          240 
 3207000        320.7    560888.71   0.32325089   0.06053037          450           24          240 
 3208000        320.8    560776.76    0.3235276   0.06053037          450           24          240 
 3209000        320.9    560715.59   0.32380075   0.06053037          450           24          240 
 3210000          321    560702.63   0.32409507   0.06053037          450           24          240 
 3211000        321.1    560661.17    0.3243686   0.06053037          450           24          240 
 3212000        321.2     560617.8    0.3247688   0.06053037          450           24          240 
 3213000        321.3    560570.21    0.3251631   0.06053037          450           24          240 
 3214000        321.4    560590.99   0.32529727   0.06053037          450           24          240 
 3215000        321.5    560678.75   0.32553645   0.06053037          450           24          240 
 3216000        321.6     560752.6   0.32608928   0.06053037          450           24          240 
 3217000        321.7    560849.75   0.32661697   0.06053037          450           24          240 
 3218000        321.8    560962.34   0.32697911   0.06053037          450           24          240 
 3219000        321.9    561083.45   0.32724205   0.06053037          450           24          240 
 3220000          322    561244.38   0.32758413   0.06053037          450           24          240 
 3221000        322.1    561420.58   0.32793758   0.06053037          450           24          240 
 3222000        322.2    561575.05   0.32820874   0.06053037          450           24          240 
 3223000        322.3    561748.97   0.32857926   0.06053037          450           24          240 
 3224000        322.4    561914.67   0.32910995   0.06053037          450           24          240 
 3225000        322.5    562010.81   0.32958743   0.06053037          450           24          240 
 3226000        322.6     562157.4   0.33002147   0.06053037          450           24          240 
 3227000        322.7    562322.42   0.33046516   0.06053037          450           24          240 
 3228000        322.8    562425.67   0.33079248   0.06053037          450           24          240 
 3229000        322.9    562519.48   0.33121434   0.06053037          450           24          240 
 3230000          323    562651.35   0.33164767   0.06053037          450           24          240 
 3231000        323.1    562827.66   0.33205643   0.06053037          450           24          240 
 3232000        323.2    563086.96   0.33265931   0.06053037          450           24          240 
 3233000        323.3     563329.1   0.33309601   0.06053037          450           24          240 
 3234000        323.4    563581.95   0.33339323   0.06053037          450           24          240 
 3235000        323.5    563834.25   0.33373171   0.06053037          450           24          240 
 3236000        323.6    564088.22   0.33417738   0.06053037          450           24          240 
 3237000        323.7    564265.79   0.33475157   0.06053037          450           24          240 
 3238000        323.8    564449.88   0.33529607   0.06053037          450           24          240 
 3239000        323.9    564657.09   0.33567293   0.06053037          450           24          240 
 3240000          324    564870.14   0.33609452   0.06053037          450           24          240 
 3241000        324.1    565016.41    0.3365898   0.06053037          450           24          240 
 3242000        324.2    565181.64   0.33710877   0.06053037          450           24          240 
 3243000        324.3    565268.69   0.33751523   0.06053037          450           24          240 
 3244000        324.4    565309.92   0.33787593   0.06053037          450           24          240 
 3245000        324.5    565305.01   0.33823927   0.06053037          450           24          240 
 3246000        324.6    565357.51   0.33864359   0.06053037          450           24          240 
 3247000        324.7    565482.42   0.33898163   0.06053037          450           24          240 
 3248000        324.8    565649.75   0.33927387   0.06053037          450           24          240 
 3249000        324.9    565755.82   0.33960761   0.06053037          450           24          240 
 3250000          325    565894.02   0.33994492   0.06053037          450           24          240 
 3251000        325.1    566031.34   0.34034322   0.06053037          450           24          240 
 3252000        325.2    566148.44   0.34084168   0.06053037          450           24          240 
 3253000        325.3    566207.66   0.34125195   0.06053037          450           24          240 
 3254000        325.4    566131.73   0.34157701   0.06053037          450           24          240 
 3255000        325.5    566078.04   0.34202557   0.06053037          450           24          240 
 3256000        325.6    565998.63   0.34232965   0.06053037          450           24          240 
 3257000        325.7    565943.44   0.34254994   0.06053037          450           24          240 
 3258000        325.8    565852.44    0.3429436   0.06053037          450           24          240 
 3259000        325.9    565807.86   0.34329789   0.06053037          450           24          240 
 3260000          326    565784.89   0.34354083   0.06053037          450           24          240 
 3261000        326.1    565710.02   0.34381395   0.06053037          450           24          240 
 3262000        326.2     565676.9   0.34407795   0.06053037          450           24          240 
 3263000        326.3    565671.05   0.34433446   0.06053037          450           24          240 
 3264000        326.4    565758.88   0.34445358   0.06053037          450           24          240 
 3265000        326.5    565837.86   0.34470669   0.06053037          450           24          240 
 3266000        326.6    565985.95   0.34498653   0.06053037          450           24          240 
 3267000        326.7    566122.56    0.3451725   0.06053037          450           24          240 
 3268000        326.8    566274.62   0.34534928   0.06053037          450           24          240 
 3269000        326.9    566472.48   0.34550805   0.06053037          450           24          240 
 3270000          327     566679.4   0.34553495   0.06053037          450           24          240 
 3271000        327.1    566842.23   0.34559607   0.06053037          450           24          240 
 3272000        327.2    567011.01   0.34566913   0.06053037          450           24          240 
 3273000        327.3    567200.09   0.34579114   0.06053037          450           24          240 
 3274000        327.4    567379.04    0.3459974   0.06053037          450           24          240 
 3275000        327.5    567495.16   0.34609467   0.06053037          450           24          240 
 3276000        327.6    567632.83   0.34587045   0.06053037          450           24          240 
 3277000        327.7    567745.16   0.34584702   0.06053037          450           24          240 
 3278000        327.8    567834.49   0.34592455   0.06053037          450           24          240 
 3279000        327.9    567974.44   0.34572186   0.06053037          450           24          240 
 3280000          328    568194.34   0.34555847   0.06053037          450           24          240 
 3281000        328.1    568439.02   0.34539808   0.06053037          450           24          240 
 3282000        328.2    568740.47    0.3451981   0.06053037          450           24          240 
 3283000        328.3    569045.08   0.34501559   0.06053037          450           24          240 
 3284000        328.4    569364.85   0.34477954   0.06053037          450           24          240 
 3285000        328.5     569629.3   0.34454345   0.06053037          450           24          240 
 3286000        328.6    569837.87   0.34426456   0.06053037          450           24          240 
 3287000        328.7    570004.44   0.34393143   0.06053037          450           24          240 
 3288000        328.8    570189.46   0.34350086   0.06053037          450           24          240 
 3289000        328.9    570414.78    0.3431051   0.06053037          450           24          240 
 3290000          329     570656.9   0.34268725   0.06053037          450           24          240 
 3291000        329.1    570950.64    0.3422619   0.06053037          450           24          240 
 3292000        329.2    571262.24    0.3418567   0.06053037          450           24          240 
 3293000        329.3    571597.72   0.34127962   0.06053037          450           24          240 
 3294000        329.4    571868.43   0.34064696   0.06053037          450           24          240 
 3295000        329.5    572162.92   0.34004957   0.06053037          450           24          240 
 3296000        329.6    572456.41   0.33951028   0.06053037          450           24          240 
 3297000        329.7     572713.8   0.33883295   0.06053037          450           24          240 
 3298000        329.8    572990.41   0.33805857   0.06053037          450           24          240 
 3299000        329.9     573260.8   0.33723669   0.06053037          450           24          240 
 3300000          330     573518.5     0.336373   0.06053037          450           24          240 
 3301000        330.1    573777.81   0.33553623   0.06053037          450           24          240 
 3302000        330.2    574028.35   0.33476938   0.06053037          450           24          240 
 3303000        330.3    574277.53   0.33399977   0.06053037          450           24          240 
 3304000        330.4     574490.8   0.33302072   0.06053037          450           24          240 
 3305000        330.5    574628.55   0.33188692   0.06053037          450           24          240 
 3306000        330.6    574709.01   0.33080399   0.06053037          450           24          240 
 3307000        330.7    574839.12   0.32983036   0.06053037          450           24          240 
 3308000        330.8    575051.19   0.32870893   0.06053037          450           24          240 
 3309000        330.9    575197.52   0.32748695   0.06053037          450           24          240 
 3310000          331    575324.68   0.32632009   0.06053037          450           24          240 
 3311000        331.1    575469.71   0.32517468   0.06053037          450           24          240 
 3312000        331.2    575706.16   0.32387236   0.06053037          450           24          240 
 3313000        331.3    575949.83   0.32250939   0.06053037          450           24          240 
 3314000        331.4    576148.79   0.32118514   0.06053037          450           24          240 
 3315000        331.5    576359.92   0.31970973   0.06053037          450           24          240 
 3316000        331.6    576560.23   0.31824638   0.06053037          450           24          240 
 3317000        331.7    576721.89   0.31681006   0.06053037          450           24          240 
 3318000        331.8    576867.96   0.31527402   0.06053037          450           24          240 
 3319000        331.9    576967.91   0.31358161   0.06053037          450           24          240 
 3320000          332    577007.58   0.31186199   0.06053037          450           24          240 
 3321000        332.1    577034.04   0.31014758   0.06053037          450           24          240 
 3322000        332.2    576979.96   0.30841399   0.06053037          450           24          240 
 3323000        332.3    576869.73   0.30669716   0.06053037          450           24          240 
 3324000        332.4    576853.66   0.30493178   0.06053037          450           24          240 
 3325000        332.5    576808.23   0.30305992   0.06053037          450           24          240 
 3326000        332.6    576745.32   0.30113407   0.06053037          450           24          240 
 3327000        332.7    576689.42   0.29918316   0.06053037          450           24          240 
 3328000        332.8     576617.3   0.29720578   0.06053037          450           24          240 
 3329000        332.9    576458.39   0.29504153   0.06053037          450           24          240 
 3330000          333    576328.23   0.29293183   0.06053037          450           24          240 
 3331000        333.1    576169.43    0.2907682   0.06053037          450           24          240 
 3332000        333.2     575997.5   0.28857591   0.06053037          450           24          240 
 3333000        333.3     575856.3    0.2863351   0.06053037          450           24          240 
 3334000        333.4    575660.39   0.28406863   0.06053037          450           24          240 
 3335000        333.5    575390.35   0.28173049   0.06053037          450           24          240 
 3336000        333.6    575129.33   0.27935785   0.06053037          450           24          240 
 3337000        333.7    574776.79   0.27698051   0.06053037          450           24          240 
 3338000        333.8    574390.78   0.27448719   0.06053037          450           24          240 
 3339000        333.9    574019.61   0.27194646   0.06053037          450           24          240 
 3340000          334    573561.07   0.26945342   0.06053037          450           24          240 
 3341000        334.1    573129.57    0.2668097   0.06053037          450           24          240 
 3342000        334.2     572698.3   0.26415617   0.06053037          450           24          240 
 3343000        334.3    572245.31   0.26152755   0.06053037          450           24          240 
 3344000        334.4    571793.72   0.25880542   0.06053037          450           24          240 
 3345000        334.5    571320.64   0.25596711   0.06053037          450           24          240 
 3346000        334.6    570791.35   0.25321658   0.06053037          450           24          240 
 3347000        334.7    570303.12    0.2505283   0.06053037          450           24          240 
 3348000        334.8    569806.55   0.24768671   0.06053037          450           24          240 
 3349000        334.9    569318.01   0.24468965   0.06053037          450           24          240 
 3350000          335    568853.64   0.24171264   0.06053037          450           24          240 
 3351000        335.1    568525.47   0.23861188   0.06053037          450           24          240 
 3352000        335.2     568265.4   0.23559631   0.06053037          450           24          240 
 3353000        335.3    567994.27   0.23266338   0.06053037          450           24          240 
 3354000        335.4     567719.1   0.22961744   0.06053037          450           24          240 
 3355000        335.5     567411.8   0.22639902   0.06053037          450           24          240 
 3356000        335.6    567026.75   0.22333838   0.06053037          450           24          240 
 3357000        335.7    566634.94    0.2203176   0.06053037          450           24          240 
 3358000        335.8    566271.37   0.21707535   0.06053037          450           24          240 
 3359000        335.9    565937.15   0.21384964   0.06053037          450           24          240 
 3360000          336    565604.16   0.21069601   0.06053037          450           24          240 
 3361000        336.1    565289.36   0.20744158   0.06053037          450           24          240 
 3362000        336.2    564978.97   0.20402369   0.06053037          450           24          240 
 3363000        336.3       564651    0.2007023   0.06053037          450           24          240 
 3364000        336.4    564281.66    0.1974663   0.06053037          450           24          240 
 3365000        336.5    563979.79     0.194063   0.06053037          450           24          240 
 3366000        336.6    563722.15   0.19069214   0.06053037          450           24          240 
 3367000        336.7    563427.67   0.18745631   0.06053037          450           24          240 
 3368000        336.8    563133.58   0.18407931   0.06053037          450           24          240 
 3369000        336.9    562864.18   0.18074352   0.06053037          450           24          240 
 3370000          337    562666.42   0.17726712   0.06053037          450           24          240 
 3371000        337.1    562446.55   0.17374768   0.06053037          450           24          240 
 3372000        337.2    562242.36   0.17026676   0.06053037          450           24          240 
 3373000        337.3    562124.93   0.16693168   0.06053037          450           24          240 
 3374000        337.4    562004.87   0.16357176   0.06053037          450           24          240 
 3375000        337.5    561906.94   0.16014376   0.06053037          450           24          240 
 3376000        337.6    561848.08   0.15671801   0.06053037          450           24          240 
 3377000        337.7    561773.13   0.15330686   0.06053037          450           24          240 
 3378000        337.8     561684.1   0.14987481   0.06053037          450           24          240 
 3379000        337.9    561525.14   0.14644326   0.06053037          450           24          240 
 3380000          338    561380.61   0.14306433   0.06053037          450           24          240 
 3381000        338.1    561309.65   0.13976069   0.06053037          450           24          240 
 3382000        338.2    561289.26   0.13644368   0.06053037          450           24          240 
 3383000        338.3    561308.33   0.13301548   0.06053037          450           24          240 
 3384000        338.4    561330.13    0.1297198   0.06053037          450           24          240 
 3385000        338.5    561374.87   0.12661316   0.06053037          450           24          240 
 3386000        338.6    561373.58   0.12333737   0.06053037          450           24          240 
 3387000        338.7    561371.45   0.11995166   0.06053037          450           24          240 
 3388000        338.8    561291.39   0.11648649   0.06053037          450           24          240 
 3389000        338.9    561188.49   0.11322528   0.06053037          450           24          240 
 3390000          339    561101.07   0.11033484   0.06053037          450           24          240 
 3391000        339.1    561096.73   0.10727143   0.06053037          450           24          240 
 3392000        339.2    561091.19   0.10409044   0.06053037          450           24          240 
 3393000        339.3    561015.01   0.10088839   0.06053037          450           24          240 
 3394000        339.4    560910.12  0.097768462   0.06053037          450           24          240 
 3395000        339.5    560793.55  0.094796937   0.06053037          450           24          240 
 3396000        339.6    560678.54  0.091977632   0.06053037          450           24          240 
 3397000        339.7    560545.36  0.089070704   0.06053037          450           24          240 
 3398000        339.8    560305.14  0.086036008   0.06053037          450           24          240 
 3399000        339.9     560069.7  0.083256164   0.06053037          450           24          240 
 3400000          340       559875  0.080472739   0.06053037          450           24          240 
 3401000        340.1    559709.12  0.077667459   0.06053037          450           24          240 
 3402000        340.2    559512.68  0.074957619   0.06053037          450           24          240 
 3403000        340.3    559333.88   0.07239847   0.06053037          450           24          240 
 3404000        340.4    559119.29  0.069843737   0.06053037          450           24          240 
 3405000        340.5     558957.5  0.067323227   0.06053037          450           24          240 
 3406000        340.6    558796.51  0.064883388   0.06053037          450           24          240 
 3407000        340.7    558663.24  0.062546982   0.06053037          450           24          240 
 3408000        340.8    558577.21  0.060226981   0.06053037          450           24          240 
 3409000        340.9    558518.26  0.057925461   0.06053037          450           24          240 
 3410000          341    558419.12  0.055816742   0.06053037          450           24          240 
 3411000        341.1    558309.56  0.053905895   0.06053037          450           24          240 
 3412000        341.2    558194.75  0.051890919   0.06053037          450           24          240 
 3413000        341.3    558100.79  0.049871986   0.06053037          450           24          240 
 3414000        341.4    558006.93  0.048058995   0.06053037          450           24          240 
 3415000        341.5    557968.64  0.046339466   0.06053037          450           24          240 
 3416000        341.6    557953.27   0.04461995   0.06053037          450           24          240 
 3417000        341.7    557922.45  0.043025683   0.06053037          450           24          240 
 3418000        341.8    557956.74  0.041503051   0.06053037          450           24          240 
 3419000        341.9    557978.05  0.040059343   0.06053037          450           24          240 
 3420000          342    557964.42   0.03867212   0.06053037          450           24          240 
 3421000        342.1     557925.9  0.037398932   0.06053037          450           24          240 
 3422000        342.2    557873.56  0.036311332   0.06053037          450           24          240 
 3423000        342.3    557792.87   0.03527912   0.06053037          450           24          240 
 3424000        342.4    557695.63  0.034246394   0.06053037          450           24          240 
 3425000        342.5    557576.18  0.033436902   0.06053037          450           24          240 
 3426000        342.6     557423.9  0.032713714   0.06053037          450           24          240 
 3427000        342.7    557318.74  0.032094637   0.06053037          450           24          240 
 3428000        342.8    557269.93  0.031673765   0.06053037          450           24          240 
 3429000        342.9    557236.38  0.031378635   0.06053037          450           24          240 
 3430000          343    557256.82  0.031145142   0.06053037          450           24          240 
 3431000        343.1    557196.08  0.031137969   0.06053037          450           24          240 
 3432000        343.2    557159.82  0.031363713   0.06053037          450           24          240 
 3433000        343.3    557116.82  0.031718998   0.06053037          450           24          240 
 3434000        343.4    557095.07  0.032226467   0.06053037          450           24          240 
 3435000        343.5    557025.21  0.032786072   0.06053037          450           24          240 
 3436000        343.6    556910.02  0.033460726   0.06053037          450           24          240 
 3437000        343.7    556712.96  0.034250079   0.06053037          450           24          240 
 3438000        343.8     556556.8  0.035118801   0.06053037          450           24          240 
 3439000        343.9    556359.71  0.036050942   0.06053037          450           24          240 
 3440000          344    556172.42  0.037095432   0.06053037          450           24          240 
 3441000        344.1    555979.12  0.038405827   0.06053037          450           24          240 
 3442000        344.2    555743.81  0.039904016   0.06053037          450           24          240 
 3443000        344.3     555454.3  0.041282114   0.06053037          450           24          240 
 3444000        344.4    555226.03  0.042606762   0.06053037          450           24          240 
 3445000        344.5    555012.37   0.04401255   0.06053037          450           24          240 
 3446000        344.6    554864.76  0.045600145   0.06053037          450           24          240 
 3447000        344.7    554675.98  0.047329327   0.06053037          450           24          240 
 3448000        344.8    554502.89  0.049178683   0.06053037          450           24          240 
 3449000        344.9     554292.5  0.051215911   0.06053037          450           24          240 
 3450000          345    554128.25  0.053295627   0.06053037          450           24          240 
 3451000        345.1    554016.39  0.055273264   0.06053037          450           24          240 
 3452000        345.2    553916.64  0.057320155   0.06053037          450           24          240 
 3453000        345.3     553865.5  0.059495324   0.06053037          450           24          240 
 3454000        345.4    553877.16  0.061706128   0.06053037          450           24          240 
 3455000        345.5    553912.06  0.063950784   0.06053037          450           24          240 
 3456000        345.6     553908.7  0.066427243   0.06053037          450           24          240 
 3457000        345.7    553884.68  0.068973697   0.06053037          450           24          240 
 3458000        345.8    553806.94  0.071594802   0.06053037          450           24          240 
 3459000        345.9    553751.02  0.074303554   0.06053037          450           24          240 
 3460000          346    553721.19  0.077027404   0.06053037          450           24          240 
 3461000        346.1    553635.08  0.079643611   0.06053037          450           24          240 
 3462000        346.2    553461.35  0.082236703   0.06053037          450           24          240 
 3463000        346.3    553274.44  0.085037403   0.06053037          450           24          240 
 3464000        346.4     553063.8  0.088066127   0.06053037          450           24          240 
 3465000        346.5    552904.25  0.091031485   0.06053037          450           24          240 
 3466000        346.6    552688.55  0.093984221   0.06053037          450           24          240 
 3467000        346.7    552490.61  0.096986337   0.06053037          450           24          240 
 3468000        346.8    552278.72  0.099929224   0.06053037          450           24          240 
 3469000        346.9    552089.22   0.10300102   0.06053037          450           24          240 
 3470000          347     551959.7   0.10617311   0.06053037          450           24          240 
 3471000        347.1     551811.4   0.10927113   0.06053037          450           24          240 
 3472000        347.2    551658.73   0.11228339   0.06053037          450           24          240 
 3473000        347.3    551572.75   0.11555029   0.06053037          450           24          240 
 3474000        347.4    551503.37   0.11894697   0.06053037          450           24          240 
 3475000        347.5    551433.72   0.12224334   0.06053037          450           24          240 
 3476000        347.6    551363.37   0.12555189   0.06053037          450           24          240 
 3477000        347.7    551225.33   0.12889423   0.06053037          450           24          240 
 3478000        347.8     551117.7   0.13234228   0.06053037          450           24          240 
 3479000        347.9    550992.71   0.13569365   0.06053037          450           24          240 
 3480000          348    550957.14   0.13888462   0.06053037          450           24          240 
 3481000        348.1    550986.65   0.14221408   0.06053037          450           24          240 
 3482000        348.2    551048.08    0.1456424   0.06053037          450           24          240 
 3483000        348.3    551111.11   0.14906618   0.06053037          450           24          240 
 3484000        348.4    551306.27   0.15238571   0.06053037          450           24          240 
 3485000        348.5    551569.04   0.15572303   0.06053037          450           24          240 
 3486000        348.6    551844.39   0.15920238   0.06053037          450           24          240 
 3487000        348.7    552196.62   0.16268465   0.06053037          450           24          240 
 3488000        348.8     552585.4   0.16609431   0.06053037          450           24          240 
 3489000        348.9    552899.99    0.1695434   0.06053037          450           24          240 
 3490000          349    553253.59   0.17296828   0.06053037          450           24          240 
 3491000        349.1    553611.21   0.17637369   0.06053037          450           24          240 
 3492000        349.2    553964.17    0.1796889   0.06053037          450           24          240 
 3493000        349.3    554332.51   0.18297157   0.06053037          450           24          240 
 3494000        349.4    554678.16    0.1864583   0.06053037          450           24          240 
 3495000        349.5    555004.21    0.1899493   0.06053037          450           24          240 
 3496000        349.6    555367.25   0.19340712   0.06053037          450           24          240 
 3497000        349.7    555604.87   0.19671265   0.06053037          450           24          240 
 3498000        349.8    555846.87   0.19997422   0.06053037          450           24          240 
 3499000        349.9    556159.68   0.20322094   0.06053037          450           24          240 
 3500000          350    556479.61   0.20656053   0.06053037          450           24          240 
 3501000        350.1    556773.35   0.20986932   0.06053037          450           24          240 
 3502000        350.2    556988.25   0.21299711   0.06053037          450           24          240 
 3503000        350.3     557171.2    0.2161684   0.06053037          450           24          240 
 3504000        350.4    557350.29   0.21942995   0.06053037          450           24          240 
 3505000        350.5    557527.17   0.22269627   0.06053037          450           24          240 
 3506000        350.6    557714.57   0.22592512   0.06053037          450           24          240 
 3507000        350.7     557887.1   0.22889527   0.06053037          450           24          240 
 3508000        350.8    558020.81   0.23186636   0.06053037          450           24          240 
 3509000        350.9    558149.14   0.23509711   0.06053037          450           24          240 
 3510000          351    558278.41   0.23830062   0.06053037          450           24          240 
 3511000        351.1    558460.46    0.2411896   0.06053037          450           24          240 
 3512000        351.2    558610.38   0.24413372   0.06053037          450           24          240 
 3513000        351.3    558712.12   0.24716759   0.06053037          450           24          240 
 3514000        351.4    558853.19    0.2500685   0.06053037          450           24          240 
 3515000        351.5    558997.45   0.25293297   0.06053037          450           24          240 
 3516000        351.6    559088.78   0.25574804   0.06053037          450           24          240 
 3517000        351.7    559218.53   0.25855377   0.06053037          450           24          240 
 3518000        351.8    559369.38   0.26136918   0.06053037          450           24          240 
 3519000        351.9    559491.49   0.26411257   0.06053037          450           24          240 
 3520000          352    559598.93   0.26674802   0.06053037          450           24          240 
 3521000        352.1    559708.78    0.2693813   0.06053037          450           24          240 
 3522000        352.2    559804.25   0.27201198   0.06053037          450           24          240 
 3523000        352.3    559974.97   0.27465129   0.06053037          450           24          240 
 3524000        352.4    560187.47   0.27708764   0.06053037          450           24          240 
 3525000        352.5    560415.37   0.27945225   0.06053037          450           24          240 
 3526000        352.6    560697.95   0.28188788   0.06053037          450           24          240 
 3527000        352.7    561031.48   0.28416404   0.06053037          450           24          240 
 3528000        352.8    561397.72   0.28641711   0.06053037          450           24          240 
 3529000        352.9     561724.4   0.28887891   0.06053037          450           24          240 
 3530000          353    562063.49   0.29117215   0.06053037          450           24          240 
 3531000        353.1    562382.08    0.2932296   0.06053037          450           24          240 
 3532000        353.2    562645.18   0.29538347   0.06053037          450           24          240 
 3533000        353.3    562867.38   0.29743654   0.06053037          450           24          240 
 3534000        353.4     563100.4   0.29954564   0.06053037          450           24          240 
 3535000        353.5    563343.93   0.30161571   0.06053037          450           24          240 
 3536000        353.6    563629.62   0.30353353   0.06053037          450           24          240 
 3537000        353.7    563902.98   0.30553624   0.06053037          450           24          240 
 3538000        353.8    564124.76   0.30732601   0.06053037          450           24          240 
 3539000        353.9    564388.04   0.30913856   0.06053037          450           24          240 
 3540000          354    564563.05   0.31098669   0.06053037          450           24          240 
 3541000        354.1    564723.71   0.31271868   0.06053037          450           24          240 
 3542000        354.2    564904.17   0.31434129   0.06053037          450           24          240 
 3543000        354.3    565012.94    0.3160822   0.06053037          450           24          240 
 3544000        354.4    565178.73   0.31765454   0.06053037          450           24          240 
 3545000        354.5     565379.4   0.31910873   0.06053037          450           24          240 
 3546000        354.6    565563.86   0.32069353   0.06053037          450           24          240 
 3547000        354.7    565649.44     0.322266   0.06053037          450           24          240 
 3548000        354.8     565683.4   0.32370512   0.06053037          450           24          240 
 3549000        354.9    565731.57   0.32506466   0.06053037          450           24          240 
 3550000          355    565834.95   0.32642056   0.06053037          450           24          240 
 3551000        355.1    565912.71   0.32772149   0.06053037          450           24          240 
 3552000        355.2    565953.64   0.32884319   0.06053037          450           24          240 
 3553000        355.3    565976.12   0.33002155   0.06053037          450           24          240 
 3554000        355.4    566070.72   0.33129096   0.06053037          450           24          240 
 3555000        355.5     566136.9   0.33239438   0.06053037          450           24          240 
 3556000        355.6    566220.93   0.33346781   0.06053037          450           24          240 
 3557000        355.7    566332.55   0.33445591   0.06053037          450           24          240 
 3558000        355.8    566508.91   0.33536086   0.06053037          450           24          240 
 3559000        355.9    566686.29   0.33636708   0.06053037          450           24          240 
 3560000          356    566835.96   0.33734712   0.06053037          450           24          240 
 3561000        356.1    567059.58   0.33810691   0.06053037          450           24          240 
 3562000        356.2    567281.21   0.33882408   0.06053037          450           24          240 
 3563000        356.3    567462.35    0.3395872   0.06053037          450           24          240 
 3564000        356.4    567630.92   0.34035797   0.06053037          450           24          240 
 3565000        356.5    567808.75   0.34101261   0.06053037          450           24          240 
 3566000        356.6    567987.95   0.34165024   0.06053037          450           24          240 
 3567000        356.7    568231.18    0.3422065   0.06053037          450           24          240 
 3568000        356.8    568446.84   0.34281165   0.06053037          450           24          240 
 3569000        356.9    568700.34   0.34342965   0.06053037          450           24          240 
 3570000          357     568978.6   0.34398675   0.06053037          450           24          240 
 3571000        357.1    569230.74   0.34443325   0.06053037          450           24          240 
 3572000        357.2    569475.74   0.34496091   0.06053037          450           24          240 
 3573000        357.3    569665.49   0.34548523   0.06053037          450           24          240 
 3574000        357.4    569815.12   0.34587227   0.06053037          450           24          240 
 3575000        357.5    569867.04   0.34602584   0.06053037          450           24          240 
 3576000        357.6    569946.06   0.34619181   0.06053037          450           24          240 
 3577000        357.7    570075.63   0.34663309   0.06053037          450           24          240 
 3578000        357.8    570215.07   0.34695472   0.06053037          450           24          240 
 3579000        357.9    570372.36   0.34711524   0.06053037          450           24          240 
 3580000          358    570568.73   0.34723481   0.06053037          450           24          240 
 3581000        358.1    570782.59   0.34733527   0.06053037          450           24          240 
 3582000        358.2    571014.64   0.34744034   0.06053037          450           24          240 
 3583000        358.3    571284.23   0.34753204   0.06053037          450           24          240 
 3584000        358.4     571582.5   0.34761666   0.06053037          450           24          240 
 3585000        358.5    571813.84   0.34780717   0.06053037          450           24          240 
 3586000        358.6     572040.3   0.34789035   0.06053037          450           24          240 
 3587000        358.7    572157.21   0.34788295   0.06053037          450           24          240 
 3588000        358.8    572259.22   0.34779777   0.06053037          450           24          240 
 3589000        358.9    572432.97   0.34778757   0.06053037          450           24          240 
 3590000          359    572667.33   0.34779953   0.06053037          450           24          240 
 3591000        359.1    572834.07   0.34775634   0.06053037          450           24          240 
 3592000        359.2    572855.93   0.34762716   0.06053037          450           24          240 
 3593000        359.3    572853.26   0.34745388   0.06053037          450           24          240 
 3594000        359.4    572892.12   0.34731134   0.06053037          450           24          240 
 3595000        359.5    572826.71   0.34712361   0.06053037          450           24          240 
 3596000        359.6    572744.78   0.34700535   0.06053037          450           24          240 
 3597000        359.7     572589.5   0.34688008   0.06053037          450           24          240 
 3598000        359.8     572483.3   0.34654523   0.06053037          450           24          240 
 3599000        359.9    572368.89   0.34623187   0.06053037          450           24          240 
 3600000          360    572277.74   0.34592922   0.06053037          450           24          240 
 3601000        360.1    572157.36   0.34566913   0.06053037          450           24          240 
 3602000        360.2    572031.33   0.34550257   0.06053037          450           24          240 
 3603000        360.3    571885.38   0.34528378   0.06053037          450           24          240 
 3604000        360.4    571785.96   0.34494029   0.06053037          450           24          240 
 3605000        360.5    571670.82   0.34450738   0.06053037          450           24          240 
 3606000        360.6    571572.93   0.34416542   0.06053037          450           24          240 
 3607000        360.7     571519.5   0.34385685   0.06053037          450           24          240 
 3608000        360.8    571511.56   0.34349442   0.06053037          450           24          240 
 3609000        360.9       571445   0.34309469   0.06053037          450           24          240 
 3610000          361       571409   0.34268914   0.06053037          450           24          240 
 3611000        361.1    571361.73   0.34236133   0.06053037          450           24          240 
 3612000        361.2    571302.16   0.34204411   0.06053037          450           24          240 
 3613000        361.3    571260.73   0.34157917   0.06053037          450           24          240 
 3614000        361.4    571245.33   0.34120209   0.06053037          450           24          240 
 3615000        361.5    571219.86   0.34083192   0.06053037          450           24          240 
 3616000        361.6    571237.57   0.34032792   0.06053037          450           24          240 
 3617000        361.7    571212.41   0.33982154   0.06053037          450           24          240 
 3618000        361.8    571184.03   0.33944575   0.06053037          450           24          240 
 3619000        361.9    571179.89   0.33903124   0.06053037          450           24          240 
 3620000          362    571124.53   0.33844779   0.06053037          450           24          240 
 3621000        362.1    571131.04   0.33803802   0.06053037          450           24          240 
 3622000        362.2     571176.5   0.33771218   0.06053037          450           24          240 
 3623000        362.3    571213.71   0.33730256   0.06053037          450           24          240 
 3624000        362.4    571226.87   0.33690291   0.06053037          450           24          240 
 3625000        362.5    571233.27   0.33645276   0.06053037          450           24          240 
 3626000        362.6    571295.01   0.33606507   0.06053037          450           24          240 
 3627000        362.7    571430.82   0.33565086   0.06053037          450           24          240 
 3628000        362.8    571561.02   0.33520987   0.06053037          450           24          240 
 3629000        362.9    571630.02   0.33465943   0.06053037          450           24          240 
 3630000          363    571684.26   0.33410039   0.06053037          450           24          240 
 3631000        363.1     571764.1   0.33375471   0.06053037          450           24          240 
 3632000        363.2    571811.79   0.33342107   0.06053037          450           24          240 
 3633000        363.3    571836.11   0.33307548   0.06053037          450           24          240 
 3634000        363.4    571886.57   0.33273858   0.06053037          450           24          240 
 3635000        363.5    571881.57   0.33232217   0.06053037          450           24          240 
 3636000        363.6    571862.54   0.33182723   0.06053037          450           24          240 
 3637000        363.7    571854.78   0.33127472   0.06053037          450           24          240 
 3638000        363.8    571837.07   0.33084889   0.06053037          450           24          240 
 3639000        363.9    571778.75   0.33043555   0.06053037          450           24          240 
 3640000          364    571752.61   0.33002407   0.06053037          450           24          240 
 3641000        364.1    571654.64   0.32949782   0.06053037          450           24          240 
 3642000        364.2    571541.24   0.32910184   0.06053037          450           24          240 
 3643000        364.3    571485.73   0.32880092   0.06053037          450           24          240 
 3644000        364.4    571350.44   0.32832882   0.06053037          450           24          240 
 3645000        364.5    571222.03   0.32792927   0.06053037          450           24          240 
 3646000        364.6    571135.67    0.3276366   0.06053037          450           24          240 
 3647000        364.7     570990.8   0.32725194   0.06053037          450           24          240 
 3648000        364.8     570730.9    0.3268875   0.06053037          450           24          240 
 3649000        364.9    570448.85   0.32664835   0.06053037          450           24          240 
 3650000          365    570189.29   0.32625969   0.06053037          450           24          240 
 3651000        365.1    569912.02   0.32585671   0.06053037          450           24          240 
 3652000        365.2    569633.13   0.32546965   0.06053037          450           24          240 
 3653000        365.3    569388.56   0.32511715   0.06053037          450           24          240 
 3654000        365.4    569187.54   0.32488852   0.06053037          450           24          240 
 3655000        365.5    568954.25   0.32467444   0.06053037          450           24          240 
 3656000        365.6    568821.15   0.32448095   0.06053037          450           24          240 
 3657000        365.7    568619.18   0.32429777   0.06053037          450           24          240 
 3658000        365.8    568411.39   0.32400557   0.06053037          450           24          240 
 3659000        365.9    568104.59   0.32369245   0.06053037          450           24          240 
 3660000          366    567813.97   0.32346752   0.06053037          450           24          240 
 3661000        366.1     567562.7   0.32319358   0.06053037          450           24          240 
 3662000        366.2    567343.09    0.3229167   0.06053037          450           24          240 
 3663000        366.3    567121.23   0.32283232   0.06053037          450           24          240 
 3664000        366.4    566965.42   0.32264167   0.06053037          450           24          240 
 3665000        366.5    566815.44   0.32229376   0.06053037          450           24          240 
 3666000        366.6    566666.92    0.3221301   0.06053037          450           24          240 
 3667000        366.7    566507.48   0.32195828   0.06053037          450           24          240 
 3668000        366.8    566348.51   0.32171698   0.06053037          450           24          240 
 3669000        366.9    566212.75   0.32162594   0.06053037          450           24          240 
 3670000          367     566037.7   0.32163444   0.06053037          450           24          240 
 3671000        367.1    565906.78   0.32158512   0.06053037          450           24          240 
 3672000        367.2    565743.39   0.32146901   0.06053037          450           24          240 
 3673000        367.3    565506.68   0.32142613   0.06053037          450           24          240 
 3674000        367.4    565243.05   0.32126935   0.06053037          450           24          240 
 3675000        367.5    564967.98   0.32126552   0.06053037          450           24          240 
 3676000        367.6    564694.16   0.32129346   0.06053037          450           24          240 
 3677000        367.7    564442.37   0.32124586   0.06053037          450           24          240 
 3678000        367.8    564222.57   0.32123951   0.06053037          450           24          240 
 3679000        367.9    564036.73   0.32120665   0.06053037          450           24          240 
 3680000          368    563861.09   0.32107426   0.06053037          450           24          240 
 3681000        368.1     563718.9   0.32095252   0.06053037          450           24          240 
 3682000        368.2    563609.37   0.32094606   0.06053037          450           24          240 
 3683000        368.3    563535.59   0.32111967   0.06053037          450           24          240 
 3684000        368.4    563469.38   0.32125566   0.06053037          450           24          240 
 3685000        368.5    563421.52   0.32128195   0.06053037          450           24          240 
 3686000        368.6    563349.15   0.32129055   0.06053037          450           24          240 
 3687000        368.7    563296.07   0.32143762   0.06053037          450           24          240 
 3688000        368.8    563197.29   0.32160955   0.06053037          450           24          240 
 3689000        368.9    563041.55     0.321706   0.06053037          450           24          240 
 3690000          369     562873.6   0.32181935   0.06053037          450           24          240 
 3691000        369.1    562715.12   0.32197373   0.06053037          450           24          240 
 3692000        369.2    562636.72   0.32213217   0.06053037          450           24          240 
 3693000        369.3    562558.29   0.32234497   0.06053037          450           24          240 
 3694000        369.4    562542.33   0.32263029   0.06053037          450           24          240 
 3695000        369.5    562509.99   0.32280366   0.06053037          450           24          240 
 3696000        369.6    562505.66   0.32284571   0.06053037          450           24          240 
 3697000        369.7    562442.14   0.32308858   0.06053037          450           24          240 
 3698000        369.8    562342.77   0.32334716   0.06053037          450           24          240 
 3699000        369.9    562271.78   0.32355065   0.06053037          450           24          240 
 3700000          370    562139.12   0.32370669   0.06053037          450           24          240 
 3701000        370.1    561961.83   0.32392187   0.06053037          450           24          240 
 3702000        370.2    561849.67   0.32435663   0.06053037          450           24          240 
 3703000        370.3    561733.13   0.32471254   0.06053037          450           24          240 
 3704000        370.4    561599.47   0.32498126   0.06053037          450           24          240 
 3705000        370.5    561442.69    0.3252895   0.06053037          450           24          240 
 3706000        370.6    561349.53    0.3255538   0.06053037          450           24          240 
 3707000        370.7     561306.5   0.32580779   0.06053037          450           24          240 
 3708000        370.8       561257   0.32614112   0.06053037          450           24          240 
 3709000        370.9    561225.88   0.32648903   0.06053037          450           24          240 
 3710000          371    561343.34   0.32690128   0.06053037          450           24          240 
 3711000        371.1    561478.76   0.32724167   0.06053037          450           24          240 
 3712000        371.2    561617.32   0.32748102   0.06053037          450           24          240 
 3713000        371.3       561781   0.32780055   0.06053037          450           24          240 
 3714000        371.4    561981.03   0.32823023   0.06053037          450           24          240 
 3715000        371.5    562220.22   0.32857461   0.06053037          450           24          240 
 3716000        371.6    562551.31   0.32897122   0.06053037          450           24          240 
 3717000        371.7    562841.58   0.32937711   0.06053037          450           24          240 
 3718000        371.8    563132.44    0.3297509   0.06053037          450           24          240 
 3719000        371.9    563341.68   0.33014301   0.06053037          450           24          240 
 3720000          372    563624.64   0.33059969   0.06053037          450           24          240 
 3721000        372.1    563881.92   0.33101461   0.06053037          450           24          240 
 3722000        372.2    564187.02   0.33144609   0.06053037          450           24          240 
 3723000        372.3    564506.26   0.33185398   0.06053037          450           24          240 
 3724000        372.4    564871.93   0.33212734   0.06053037          450           24          240 
 3725000        372.5    565249.22   0.33252465   0.06053037          450           24          240 
 3726000        372.6    565676.89   0.33293955   0.06053037          450           24          240 
 3727000        372.7    566081.83   0.33346266   0.06053037          450           24          240 
 3728000        372.8    566477.93    0.3339125   0.06053037          450           24          240 
 3729000        372.9    566887.43   0.33421474   0.06053037          450           24          240 
 3730000          373    567249.65   0.33463597   0.06053037          450           24          240 
 3731000        373.1    567617.13   0.33508382   0.06053037          450           24          240 
 3732000        373.2    568026.26   0.33557462   0.06053037          450           24          240 
 3733000        373.3    568390.04   0.33601064   0.06053037          450           24          240 
 3734000        373.4    568676.99   0.33647226   0.06053037          450           24          240 
 3735000        373.5    568948.44   0.33696865   0.06053037          450           24          240 
 3736000        373.6    569189.85   0.33741934   0.06053037          450           24          240 
 3737000        373.7    569404.16   0.33777924   0.06053037          450           24          240 
 3738000        373.8       569594   0.33809487   0.06053037          450           24          240 
 3739000        373.9    569772.95   0.33852494   0.06053037          450           24          240 
 3740000          374    569990.57   0.33908504   0.06053037          450           24          240 
 3741000        374.1    570165.85   0.33947627   0.06053037          450           24          240 
 3742000        374.2     570318.8   0.33990591   0.06053037          450           24          240 
 3743000        374.3    570475.29   0.34037349   0.06053037          450           24          240 
 3744000        374.4     570625.9   0.34073783   0.06053037          450           24          240 
 3745000        374.5    570716.77   0.34102091   0.06053037          450           24          240 
 3746000        374.6    570822.31   0.34137076   0.06053037          450           24          240 
 3747000        374.7    570876.94   0.34177526   0.06053037          450           24          240 
 3748000        374.8     571043.4   0.34222322   0.06053037          450           24          240 
 3749000        374.9    571192.66   0.34251691   0.06053037          450           24          240 
 3750000          375    571329.24   0.34286582   0.06053037          450           24          240 
 3751000        375.1    571483.78   0.34325861   0.06053037          450           24          240 
 3752000        375.2    571668.41   0.34351095   0.06053037          450           24          240 
 3753000        375.3    571864.32   0.34369949   0.06053037          450           24          240 
 3754000        375.4    572049.77   0.34399254   0.06053037          450           24          240 
 3755000        375.5    572278.53   0.34427848   0.06053037          450           24          240 
 3756000        375.6    572442.77   0.34456489   0.06053037          450           24          240 
 3757000        375.7    572609.16   0.34481714   0.06053037          450           24          240 
 3758000        375.8    572724.54   0.34497545   0.06053037          450           24          240 
 3759000        375.9    572868.76   0.34518775   0.06053037          450           24          240 
 3760000          376    572961.84   0.34541827   0.06053037          450           24          240 
 3761000        376.1    573054.71   0.34557984   0.06053037          450           24          240 
 3762000        376.2    573081.65   0.34576816   0.06053037          450           24          240 
 3763000        376.3    573141.79   0.34593736   0.06053037          450           24          240 
 3764000        376.4    573201.31   0.34596542   0.06053037          450           24          240 
 3765000        376.5    573215.75   0.34603545   0.06053037          450           24          240 
 3766000        376.6    573183.71   0.34614903   0.06053037          450           24          240 
 3767000        376.7    573144.07   0.34628652   0.06053037          450           24          240 
 3768000        376.8    573072.98   0.34636516   0.06053037          450           24          240 
 3769000        376.9    573051.75   0.34645265   0.06053037          450           24          240 
 3770000          377    573103.72   0.34640455   0.06053037          450           24          240 
 3771000        377.1    573200.66   0.34624287   0.06053037          450           24          240 
 3772000        377.2     573300.8   0.34630727   0.06053037          450           24          240 
 3773000        377.3     573324.7    0.3463458   0.06053037          450           24          240 
 3774000        377.4    573386.39    0.3462342   0.06053037          450           24          240 
 3775000        377.5    573431.11   0.34622015   0.06053037          450           24          240 
 3776000        377.6    573471.19    0.3460641   0.06053037          450           24          240 
 3777000        377.7    573603.75   0.34576916   0.06053037          450           24          240 
 3778000        377.8    573709.06    0.3456247   0.06053037          450           24          240 
 3779000        377.9    573819.24    0.3453925   0.06053037          450           24          240 
 3780000          378    573900.42    0.3452109   0.06053037          450           24          240 
 3781000        378.1    573840.91   0.34503195   0.06053037          450           24          240 
 3782000        378.2    573701.42   0.34475522   0.06053037          450           24          240 
 3783000        378.3    573616.04   0.34440991   0.06053037          450           24          240 
 3784000        378.4    573570.02   0.34398694   0.06053037          450           24          240 
 3785000        378.5    573522.92   0.34333834   0.06053037          450           24          240 
 3786000        378.6     573412.1   0.34283604   0.06053037          450           24          240 
 3787000        378.7    573276.52   0.34242495   0.06053037          450           24          240 
 3788000        378.8    573072.76   0.34207166   0.06053037          450           24          240 
 3789000        378.9     572841.5   0.34165632   0.06053037          450           24          240 
 3790000          379    572679.86    0.3410445   0.06053037          450           24          240 
 3791000        379.1     572503.9   0.34038933   0.06053037          450           24          240 
 3792000        379.2    572305.99   0.33960144   0.06053037          450           24          240 
 3793000        379.3    572107.94   0.33893672   0.06053037          450           24          240 
 3794000        379.4    571921.21   0.33831469   0.06053037          450           24          240 
 3795000        379.5    571794.23   0.33756029   0.06053037          450           24          240 
 3796000        379.6    571722.38   0.33675095   0.06053037          450           24          240 
 3797000        379.7    571700.89   0.33582525   0.06053037          450           24          240 
 3798000        379.8    571649.11   0.33475717   0.06053037          450           24          240 
 3799000        379.9    571570.96    0.3338505   0.06053037          450           24          240 
 3800000          380    571367.36   0.33295839   0.06053037          450           24          240 
 3801000        380.1    571100.25   0.33191074   0.06053037          450           24          240 
 3802000        380.2    570800.31   0.33071317   0.06053037          450           24          240 
 3803000        380.3    570524.24   0.32956837   0.06053037          450           24          240 
 3804000        380.4    570289.21   0.32849027   0.06053037          450           24          240 
 3805000        380.5    569988.73       0.3274   0.06053037          450           24          240 
 3806000        380.6    569679.22   0.32614522   0.06053037          450           24          240 
 3807000        380.7    569353.43   0.32483277   0.06053037          450           24          240 
 3808000        380.8    569068.44   0.32352658   0.06053037          450           24          240 
 3809000        380.9    568822.94    0.3222477   0.06053037          450           24          240 
 3810000          381    568526.12    0.3208522   0.06053037          450           24          240 
 3811000        381.1    568230.11   0.31945041   0.06053037          450           24          240 
 3812000        381.2    567961.43   0.31801376   0.06053037          450           24          240 
 3813000        381.3    567678.99   0.31634963   0.06053037          450           24          240 
 3814000        381.4    567423.88   0.31462143   0.06053037          450           24          240 
 3815000        381.5    567149.42   0.31308144   0.06053037          450           24          240 
 3816000        381.6    566802.08   0.31145783   0.06053037          450           24          240 
 3817000        381.7    566464.96   0.30956223   0.06053037          450           24          240 
 3818000        381.8    566197.09    0.3077735   0.06053037          450           24          240 
 3819000        381.9    565961.25   0.30599928   0.06053037          450           24          240 
 3820000          382    565692.76   0.30405966   0.06053037          450           24          240 
 3821000        382.1    565444.75   0.30209261   0.06053037          450           24          240 
 3822000        382.2    565227.98   0.30021751   0.06053037          450           24          240 
 3823000        382.3     565000.8   0.29832025   0.06053037          450           24          240 
 3824000        382.4    564761.88   0.29626793   0.06053037          450           24          240 
 3825000        382.5    564546.07   0.29404882   0.06053037          450           24          240 
 3826000        382.6    564376.44   0.29171802   0.06053037          450           24          240 
 3827000        382.7    564201.97    0.2894082   0.06053037          450           24          240 
 3828000        382.8    564024.47   0.28735644   0.06053037          450           24          240 
 3829000        382.9    563774.21   0.28525936   0.06053037          450           24          240 
 3830000          383       563466   0.28293867   0.06053037          450           24          240 
 3831000        383.1    563135.26   0.28049287   0.06053037          450           24          240 
 3832000        383.2    562834.19   0.27805403   0.06053037          450           24          240 
 3833000        383.3    562551.78   0.27564602   0.06053037          450           24          240 
 3834000        383.4    562243.71   0.27307215   0.06053037          450           24          240 
 3835000        383.5    561929.78   0.27052919   0.06053037          450           24          240 
 3836000        383.6    561667.12   0.26791289   0.06053037          450           24          240 
 3837000        383.7    561488.41   0.26531205   0.06053037          450           24          240 
 3838000        383.8    561315.06   0.26269307   0.06053037          450           24          240 
 3839000        383.9    561126.42   0.26007017   0.06053037          450           24          240 
 3840000          384     560904.3   0.25728073   0.06053037          450           24          240 
 3841000        384.1    560705.71   0.25440787   0.06053037          450           24          240 
 3842000        384.2    560542.25   0.25169742   0.06053037          450           24          240 
 3843000        384.3    560438.55   0.24880846   0.06053037          450           24          240 
 3844000        384.4    560280.81   0.24580158   0.06053037          450           24          240 
 3845000        384.5    560152.52   0.24290512   0.06053037          450           24          240 
 3846000        384.6    560027.99   0.23998952   0.06053037          450           24          240 
 3847000        384.7    559941.31   0.23679566   0.06053037          450           24          240 
 3848000        384.8    559795.07   0.23363022   0.06053037          450           24          240 
 3849000        384.9    559631.58   0.23061719   0.06053037          450           24          240 
 3850000          385    559515.75   0.22762044   0.06053037          450           24          240 
 3851000        385.1    559366.99   0.22450168   0.06053037          450           24          240 
 3852000        385.2    559144.66   0.22121434   0.06053037          450           24          240 
 3853000        385.3    558924.49   0.21804104   0.06053037          450           24          240 
 3854000        385.4    558714.06   0.21495321   0.06053037          450           24          240 
 3855000        385.5    558461.93   0.21170309   0.06053037          450           24          240 
 3856000        385.6    558275.17   0.20847532   0.06053037          450           24          240 
 3857000        385.7    558119.05   0.20522176   0.06053037          450           24          240 
 3858000        385.8    557988.41     0.201903   0.06053037          450           24          240 
 3859000        385.9    557898.92   0.19862263   0.06053037          450           24          240 
 3860000          386    557793.31   0.19525011   0.06053037          450           24          240 
 3861000        386.1    557733.27   0.19184214   0.06053037          450           24          240 
 3862000        386.2    557669.54   0.18843376   0.06053037          450           24          240 
 3863000        386.3    557696.02   0.18500869   0.06053037          450           24          240 
 3864000        386.4    557646.41   0.18159581   0.06053037          450           24          240 
 3865000        386.5    557540.68   0.17824921   0.06053037          450           24          240 
 3866000        386.6    557449.55   0.17490214   0.06053037          450           24          240 
 3867000        386.7    557396.53   0.17148737   0.06053037          450           24          240 
 3868000        386.8    557382.28   0.16790649   0.06053037          450           24          240 
 3869000        386.9    557390.63   0.16454871   0.06053037          450           24          240 
 3870000          387    557348.69   0.16123535   0.06053037          450           24          240 
 3871000        387.1    557277.03   0.15781151   0.06053037          450           24          240 
 3872000        387.2    557158.96   0.15440645   0.06053037          450           24          240 
 3873000        387.3     557067.1   0.15104403   0.06053037          450           24          240 
 3874000        387.4    557021.61   0.14756138   0.06053037          450           24          240 
 3875000        387.5    556958.11   0.14414525   0.06053037          450           24          240 
 3876000        387.6    556934.82   0.14077538   0.06053037          450           24          240 
 3877000        387.7    556961.58   0.13726381   0.06053037          450           24          240 
 3878000        387.8     557100.8    0.1338313   0.06053037          450           24          240 
 3879000        387.9    557232.43   0.13051669   0.06053037          450           24          240 
 3880000          388    557314.39   0.12709847   0.06053037          450           24          240 
 3881000        388.1    557348.34   0.12369143   0.06053037          450           24          240 
 3882000        388.2    557328.57   0.12044331   0.06053037          450           24          240 
 3883000        388.3    557313.01   0.11730934   0.06053037          450           24          240 
 3884000        388.4    557246.54   0.11416566   0.06053037          450           24          240 
 3885000        388.5    557080.83   0.11092322   0.06053037          450           24          240 
 3886000        388.6    556901.07   0.10772678   0.06053037          450           24          240 
 3887000        388.7     556748.2   0.10459321   0.06053037          450           24          240 
 3888000        388.8    556595.89   0.10135003   0.06053037          450           24          240 
 3889000        388.9    556537.56  0.098090414   0.06053037          450           24          240 
 3890000          389    556442.29  0.095045126   0.06053037          450           24          240 
 3891000        389.1    556261.41  0.092176004   0.06053037          450           24          240 
 3892000        389.2    556096.16  0.089402379   0.06053037          450           24          240 
 3893000        389.3    555965.22  0.086411703   0.06053037          450           24          240 
 3894000        389.4    555848.99   0.08341581   0.06053037          450           24          240 
 3895000        389.5    555686.41  0.080615042   0.06053037          450           24          240 
 3896000        389.6    555499.61  0.077937461   0.06053037          450           24          240 
 3897000        389.7    555185.71  0.075364441   0.06053037          450           24          240 
 3898000        389.8    554889.89  0.072686369   0.06053037          450           24          240 
 3899000        389.9    554770.75  0.069996056   0.06053037          450           24          240 
 3900000          390    554711.57   0.06745544   0.06053037          450           24          240 
 3901000        390.1    554561.51  0.064950704   0.06053037          450           24          240 
 3902000        390.2    554340.25  0.062637829   0.06053037          450           24          240 
 3903000        390.3    554104.28  0.060356622   0.06053037          450           24          240 
 3904000        390.4    553858.29  0.057944937   0.06053037          450           24          240 
 3905000        390.5    553652.22  0.055673999   0.06053037          450           24          240 
 3906000        390.6    553426.74  0.053533882   0.06053037          450           24          240 
 3907000        390.7    553217.09  0.051437369   0.06053037          450           24          240 
 3908000        390.8    552960.44  0.049302595   0.06053037          450           24          240 
 3909000        390.9    552706.07  0.047438734   0.06053037          450           24          240 
 3910000          391    552406.13  0.045754158   0.06053037          450           24          240 
 3911000        391.1    552094.42  0.043977098   0.06053037          450           24          240 
 3912000        391.2     551869.5   0.04239687   0.06053037          450           24          240 
 3913000        391.3    551680.12  0.040924556   0.06053037          450           24          240 
 3914000        391.4    551473.49  0.039413727   0.06053037          450           24          240 
 3915000        391.5    551286.02  0.038104883   0.06053037          450           24          240 
 3916000        391.6    551124.28  0.036878185   0.06053037          450           24          240 
 3917000        391.7     550990.4  0.035686297   0.06053037          450           24          240 
 3918000        391.8    550901.97  0.034712972   0.06053037          450           24          240 
 3919000        391.9    550802.99  0.033777218   0.06053037          450           24          240 
 3920000          392    550729.71  0.032886435   0.06053037          450           24          240 
 3921000        392.1     550593.8  0.032038953   0.06053037          450           24          240 
 3922000        392.2    550504.25  0.031300582   0.06053037          450           24          240 
 3923000        392.3    550404.38  0.030888843   0.06053037          450           24          240 
 3924000        392.4     550254.3  0.030674068   0.06053037          450           24          240 
 3925000        392.5    550016.52  0.030415473   0.06053037          450           24          240 
 3926000        392.6    549722.29  0.030276365   0.06053037          450           24          240 
 3927000        392.7    549449.83  0.030378128   0.06053037          450           24          240 
 3928000        392.8    549261.94  0.030573038   0.06053037          450           24          240 
 3929000        392.9    549075.17  0.030928926   0.06053037          450           24          240 
 3930000          393    548965.18  0.031362035   0.06053037          450           24          240 
 3931000        393.1    548927.23  0.031967753   0.06053037          450           24          240 
 3932000        393.2    548880.21  0.032802917   0.06053037          450           24          240 
 3933000        393.3    548809.01  0.033727068   0.06053037          450           24          240 
 3934000        393.4    548717.69  0.034790077   0.06053037          450           24          240 
 3935000        393.5    548696.22  0.036001449   0.06053037          450           24          240 
 3936000        393.6    548664.74  0.037187928   0.06053037          450           24          240 
 3937000        393.7    548644.72  0.038347325   0.06053037          450           24          240 
 3938000        393.8    548680.35  0.039657572   0.06053037          450           24          240 
 3939000        393.9    548710.17  0.041048995   0.06053037          450           24          240 
 3940000          394    548691.22  0.042571844   0.06053037          450           24          240 
 3941000        394.1    548723.47  0.044313057   0.06053037          450           24          240 
 3942000        394.2     548830.6  0.046170711   0.06053037          450           24          240 
 3943000        394.3    548962.43  0.047926131   0.06053037          450           24          240 
 3944000        394.4    549029.44  0.049768172   0.06053037          450           24          240 
 3945000        394.5    549078.25  0.051841488   0.06053037          450           24          240 
 3946000        394.6     549117.3  0.053872528   0.06053037          450           24          240 
 3947000        394.7    549167.42  0.055901335   0.06053037          450           24          240 
 3948000        394.8     549241.6  0.058104073   0.06053037          450           24          240 
 3949000        394.9    549352.32  0.060459558   0.06053037          450           24          240 
 3950000          395    549416.09  0.062858565   0.06053037          450           24          240 
 3951000        395.1    549447.87  0.065230381   0.06053037          450           24          240 
 3952000        395.2    549496.27  0.067626846   0.06053037          450           24          240 
 3953000        395.3    549465.65  0.070246602   0.06053037          450           24          240 
 3954000        395.4    549367.93  0.072861625   0.06053037          450           24          240 
 3955000        395.5    549160.68  0.075502221   0.06053037          450           24          240 
 3956000        395.6    548925.77  0.078252973   0.06053037          450           24          240 
 3957000        395.7    548694.99  0.080942601   0.06053037          450           24          240 
 3958000        395.8    548452.77  0.083726635   0.06053037          450           24          240 
 3959000        395.9    548231.61  0.086527937   0.06053037          450           24          240 
 3960000          396    547978.86  0.089521212   0.06053037          450           24          240 
 3961000        396.1    547742.73   0.09264986   0.06053037          450           24          240 
 3962000        396.2    547511.14  0.095575051   0.06053037          450           24          240 
 3963000        396.3    547206.99  0.098514694   0.06053037          450           24          240 
 3964000        396.4    546878.95   0.10164361   0.06053037          450           24          240 
 3965000        396.5    546620.63   0.10472771   0.06053037          450           24          240 
 3966000        396.6    546417.48   0.10791036   0.06053037          450           24          240 
 3967000        396.7    546302.28   0.11106122   0.06053037          450           24          240 
 3968000        396.8    546145.61   0.11433589   0.06053037          450           24          240 
 3969000        396.9    545996.64   0.11774233   0.06053037          450           24          240 
 3970000          397    545801.53   0.12106214   0.06053037          450           24          240 
 3971000        397.1    545622.04   0.12416779   0.06053037          450           24          240 
 3972000        397.2    545376.54    0.1273304   0.06053037          450           24          240 
 3973000        397.3    545139.55   0.13057801   0.06053037          450           24          240 
 3974000        397.4     544823.6   0.13397459   0.06053037          450           24          240 
 3975000        397.5    544528.48   0.13739236   0.06053037          450           24          240 
 3976000        397.6       544293   0.14070117   0.06053037          450           24          240 
 3977000        397.7    544117.54   0.14403589   0.06053037          450           24          240 
 3978000        397.8    544003.68   0.14731211   0.06053037          450           24          240 
 3979000        397.9    543931.79   0.15075342   0.06053037          450           24          240 
 3980000          398    543829.25   0.15433747   0.06053037          450           24          240 
 3981000        398.1    543800.96   0.15779228   0.06053037          450           24          240 
 3982000        398.2    543837.77   0.16114205   0.06053037          450           24          240 
 3983000        398.3    543869.96   0.16452019   0.06053037          450           24          240 
 3984000        398.4    543908.82   0.16787468   0.06053037          450           24          240 
 3985000        398.5    543984.79   0.17130468   0.06053037          450           24          240 
 3986000        398.6    544045.14   0.17483765   0.06053037          450           24          240 
 3987000        398.7    544105.35     0.178185   0.06053037          450           24          240 
 3988000        398.8    544226.35   0.18164134   0.06053037          450           24          240 
 3989000        398.9    544368.42   0.18520559   0.06053037          450           24          240 
 3990000          399    544576.94   0.18848226   0.06053037          450           24          240 
 3991000        399.1    544815.64   0.19175217   0.06053037          450           24          240 
 3992000        399.2    545130.93   0.19517305   0.06053037          450           24          240 
 3993000        399.3    545526.36   0.19849126   0.06053037          450           24          240 
 3994000        399.4    545784.26   0.20172203   0.06053037          450           24          240 
 3995000        399.5    546105.94   0.20505326   0.06053037          450           24          240 
 3996000        399.6    546386.44   0.20838244   0.06053037          450           24          240 
 3997000        399.7    546687.32   0.21175622   0.06053037          450           24          240 
 3998000        399.8     546927.4   0.21506369   0.06053037          450           24          240 
 3999000        399.9    547194.21   0.21825118   0.06053037          450           24          240 
 4000000          400    547437.41   0.22144031   0.06053037          450           24          240 
 4001000        400.1    547710.02   0.22465369   0.06053037          450           24          240 
 4002000        400.2    548006.75   0.22771996   0.06053037          450           24          240 
 4003000        400.3    548299.35   0.23079868   0.06053037          450           24          240 
 4004000        400.4    548602.22   0.23402719   0.06053037          450           24          240 
 4005000        400.5    548844.18   0.23713885   0.06053037          450           24          240 
 4006000        400.6    549121.98   0.24009374   0.06053037          450           24          240 
 4007000        400.7     549428.2   0.24315445   0.06053037          450           24          240 
 4008000        400.8    549777.14   0.24610836   0.06053037          450           24          240 
 4009000        400.9    550079.69   0.24894954   0.06053037          450           24          240 
 4010000          401     550364.8   0.25187055   0.06053037          450           24          240 
 4011000        401.1    550584.33   0.25474395   0.06053037          450           24          240 
 4012000        401.2    550824.44   0.25750646   0.06053037          450           24          240 
 4013000        401.3    551034.79   0.26028203   0.06053037          450           24          240 
 4014000        401.4    551212.75   0.26305846   0.06053037          450           24          240 
 4015000        401.5    551439.81    0.2657138   0.06053037          450           24          240 
 4016000        401.6    551687.79   0.26823659   0.06053037          450           24          240 
 4017000        401.7    551868.01   0.27090843   0.06053037          450           24          240 
 4018000        401.8    552008.01   0.27350516   0.06053037          450           24          240 
 4019000        401.9    552135.07   0.27598895   0.06053037          450           24          240 
 4020000          402       552274   0.27846374   0.06053037          450           24          240 
 4021000        402.1    552268.76   0.28095004   0.06053037          450           24          240 
 4022000        402.2    552362.28   0.28327733   0.06053037          450           24          240 
 4023000        402.3    552447.47   0.28561297   0.06053037          450           24          240 
 4024000        402.4    552519.38   0.28800197   0.06053037          450           24          240 
 4025000        402.5    552576.99   0.29016086   0.06053037          450           24          240 
 4026000        402.6    552649.85   0.29228389   0.06053037          450           24          240 
 4027000        402.7    552601.04   0.29457498   0.06053037          450           24          240 
 4028000        402.8     552498.1    0.2967919   0.06053037          450           24          240 
 4029000        402.9    552427.07   0.29882785   0.06053037          450           24          240 
 4030000          403    552393.11   0.30080363   0.06053037          450           24          240 
 4031000        403.1    552370.41   0.30275067   0.06053037          450           24          240 
 4032000        403.2    552320.76   0.30465473   0.06053037          450           24          240 
 4033000        403.3    552209.87   0.30653982   0.06053037          450           24          240 
 4034000        403.4    552078.81   0.30826935   0.06053037          450           24          240 
 4035000        403.5     551954.3    0.3100208   0.06053037          450           24          240 
 4036000        403.6     551813.8   0.31193264   0.06053037          450           24          240 
 4037000        403.7    551655.51   0.31365259   0.06053037          450           24          240 
 4038000        403.8    551430.01   0.31514573   0.06053037          450           24          240 
 4039000        403.9     551107.1   0.31674939   0.06053037          450           24          240 
 4040000          404    550821.62   0.31836126   0.06053037          450           24          240 
 4041000        404.1    550543.25   0.31984967   0.06053037          450           24          240 
 4042000        404.2    550338.64   0.32143627   0.06053037          450           24          240 
 4043000        404.3    550097.04   0.32301157   0.06053037          450           24          240 
 4044000        404.4    549824.37   0.32439122   0.06053037          450           24          240 
 4045000        404.5    549535.08   0.32574808   0.06053037          450           24          240 
 4046000        404.6     549151.7   0.32707551   0.06053037          450           24          240 
 4047000        404.7    548818.62   0.32816407   0.06053037          450           24          240 
 4048000        404.8    548525.84   0.32919393   0.06053037          450           24          240 
 4049000        404.9    548300.52   0.33034649   0.06053037          450           24          240 
 4050000          405    548060.77    0.3315204   0.06053037          450           24          240 
 4051000        405.1    547902.32   0.33249887   0.06053037          450           24          240 
 4052000        405.2    547736.26   0.33346223   0.06053037          450           24          240 
 4053000        405.3    547580.77   0.33449958   0.06053037          450           24          240 
 4054000        405.4    547479.09   0.33550241   0.06053037          450           24          240 
 4055000        405.5    547325.58   0.33642616   0.06053037          450           24          240 
 4056000        405.6    547164.98   0.33713366   0.06053037          450           24          240 
 4057000        405.7    546983.82   0.33794819   0.06053037          450           24          240 
 4058000        405.8    546731.74    0.3388561   0.06053037          450           24          240 
 4059000        405.9    546439.94   0.33964758   0.06053037          450           24          240 
 4060000          406    546114.46   0.34039957   0.06053037          450           24          240 
 4061000        406.1    545812.11    0.3411161   0.06053037          450           24          240 
 4062000        406.2    545555.15   0.34167264   0.06053037          450           24          240 
 4063000        406.3    545298.05   0.34219759   0.06053037          450           24          240 
 4064000        406.4    545072.91   0.34273911   0.06053037          450           24          240 
 4065000        406.5    544863.71   0.34328599   0.06053037          450           24          240 
 4066000        406.6    544671.15   0.34382381   0.06053037          450           24          240 
 4067000        406.7    544412.78   0.34422684   0.06053037          450           24          240 
 4068000        406.8    544248.74   0.34453354   0.06053037          450           24          240 
 4069000        406.9    544064.24   0.34487842   0.06053037          450           24          240 
 4070000          407    543876.74    0.3452292   0.06053037          450           24          240 
 4071000        407.1    543777.95   0.34569212   0.06053037          450           24          240 
 4072000        407.2    543794.97   0.34600887   0.06053037          450           24          240 
 4073000        407.3     543796.5   0.34623016   0.06053037          450           24          240 
 4074000        407.4    543800.12   0.34642147   0.06053037          450           24          240 
 4075000        407.5    543843.92   0.34672684   0.06053037          450           24          240 
 4076000        407.6    543876.44   0.34687661   0.06053037          450           24          240 
 4077000        407.7    543892.03   0.34695042   0.06053037          450           24          240 
 4078000        407.8    543856.81   0.34709054   0.06053037          450           24          240 
 4079000        407.9     543807.1   0.34705453   0.06053037          450           24          240 
 4080000          408     543692.4   0.34704033   0.06053037          450           24          240 
 4081000        408.1    543549.98   0.34718184   0.06053037          450           24          240 
 4082000        408.2    543439.27   0.34725514   0.06053037          450           24          240 
 4083000        408.3     543328.6   0.34716336   0.06053037          450           24          240 
 4084000        408.4    543159.12   0.34710271   0.06053037          450           24          240 
 4085000        408.5    542886.95   0.34702404   0.06053037          450           24          240 
 4086000        408.6    542614.34   0.34695925   0.06053037          450           24          240 
 4087000        408.7     542341.1   0.34694161   0.06053037          450           24          240 
 4088000        408.8    542113.19   0.34685636   0.06053037          450           24          240 
 4089000        408.9    541967.94   0.34670484   0.06053037          450           24          240 
 4090000          409    541783.97   0.34670248   0.06053037          450           24          240 
 4091000        409.1    541608.88    0.3465584   0.06053037          450           24          240 
 4092000        409.2    541461.97   0.34622768   0.06053037          450           24          240 
 4093000        409.3    541374.56   0.34587938   0.06053037          450           24          240 
 4094000        409.4    541308.91   0.34572795   0.06053037          450           24          240 
 4095000        409.5     541174.9   0.34553798   0.06053037          450           24          240 
 4096000        409.6    541032.73   0.34524601   0.06053037          450           24          240 
 4097000        409.7    540963.79   0.34485723   0.06053037          450           24          240 
 4098000        409.8    540839.82   0.34464008   0.06053037          450           24          240 
 4099000        409.9    540723.44   0.34455848   0.06053037          450           24          240 
 4100000          410    540648.28   0.34424034   0.06053037          450           24          240 
 4101000        410.1    540494.05   0.34379602   0.06053037          450           24          240 
 4102000        410.2    540288.67   0.34341606   0.06053037          450           24          240 
 4103000        410.3    539988.33    0.3431299   0.06053037          450           24          240 
 4104000        410.4    539718.41   0.34273325   0.06053037          450           24          240 
 4105000        410.5    539506.02   0.34233906   0.06053037          450           24          240 
 4106000        410.6    539399.49   0.34200799   0.06053037          450           24          240 
 4107000        410.7    539337.13    0.3416157   0.06053037          450           24          240 
 4108000        410.8    539294.14   0.34116812   0.06053037          450           24          240 
 4109000        410.9    539215.67   0.34071206   0.06053037          450           24          240 
 4110000          411    539179.32    0.3402948   0.06053037          450           24          240 
 4111000        411.1    539198.64   0.33991819   0.06053037          450           24          240 
 4112000        411.2    539269.09   0.33947328   0.06053037          450           24          240 
 4113000        411.3    539288.07   0.33914347   0.06053037          450           24          240 
 4114000        411.4    539292.92   0.33879663   0.06053037          450           24          240 
 4115000        411.5    539342.42   0.33830594   0.06053037          450           24          240 
 4116000        411.6    539401.87   0.33769717   0.06053037          450           24          240 
 4117000        411.7    539559.08   0.33718408   0.06053037          450           24          240 
 4118000        411.8    539748.92   0.33690242   0.06053037          450           24          240 
 4119000        411.9    539862.71   0.33662183   0.06053037          450           24          240 
 4120000          412    539972.06    0.3361184   0.06053037          450           24          240 
 4121000        412.1    540004.76   0.33558729   0.06053037          450           24          240 
 4122000        412.2    539995.34   0.33518941   0.06053037          450           24          240 
 4123000        412.3     539959.5   0.33483444   0.06053037          450           24          240 
 4124000        412.4    539935.01   0.33439607   0.06053037          450           24          240 
 4125000        412.5    539875.64    0.3337717   0.06053037          450           24          240 
 4126000        412.6    539857.73   0.33327947   0.06053037          450           24          240 
 4127000        412.7    539821.09   0.33298592   0.06053037          450           24          240 
 4128000        412.8    539796.25   0.33257935   0.06053037          450           24          240 
 4129000        412.9    539809.42   0.33202958   0.06053037          450           24          240 
 4130000          413    539779.12   0.33152978   0.06053037          450           24          240 
 4131000        413.1    539744.44   0.33108367   0.06053037          450           24          240 
 4132000        413.2     539823.3   0.33060554   0.06053037          450           24          240 
 4133000        413.3    539938.96    0.3301275   0.06053037          450           24          240 
 4134000        413.4    540007.99   0.32970472   0.06053037          450           24          240 
 4135000        413.5    539986.12   0.32932647   0.06053037          450           24          240 
 4136000        413.6    540021.36   0.32889933   0.06053037          450           24          240 
 4137000        413.7    540090.85   0.32847364   0.06053037          450           24          240 
 4138000        413.8    540192.47   0.32807776   0.06053037          450           24          240 
 4139000        413.9    540267.36   0.32773072   0.06053037          450           24          240 
 4140000          414    540395.55   0.32726411   0.06053037          450           24          240 
 4141000        414.1    540505.85   0.32684034   0.06053037          450           24          240 
 4142000        414.2    540618.61   0.32656135   0.06053037          450           24          240 
 4143000        414.3    540655.33   0.32641918   0.06053037          450           24          240 
 4144000        414.4    540689.19   0.32611554   0.06053037          450           24          240 
 4145000        414.5    540667.25    0.3257538   0.06053037          450           24          240 
 4146000        414.6    540645.45   0.32540524   0.06053037          450           24          240 
 4147000        414.7    540617.98   0.32500961   0.06053037          450           24          240 
 4148000        414.8    540609.35   0.32475964   0.06053037          450           24          240 
 4149000        414.9    540605.55   0.32441363   0.06053037          450           24          240 
 4150000          415    540699.78   0.32406774   0.06053037          450           24          240 
 4151000        415.1    540820.13   0.32360348   0.06053037          450           24          240 
 4152000        415.2    540895.12   0.32338491   0.06053037          450           24          240 
 4153000        415.3    540922.21   0.32335192   0.06053037          450           24          240 
 4154000        415.4    540941.48   0.32316309   0.06053037          450           24          240 
 4155000        415.5    540913.94   0.32299111   0.06053037          450           24          240 
 4156000        415.6    540899.92   0.32271593   0.06053037          450           24          240 
 4157000        415.7    540849.22   0.32246266   0.06053037          450           24          240 
 4158000        415.8    540834.33   0.32236731   0.06053037          450           24          240 
 4159000        415.9    540809.03    0.3221407   0.06053037          450           24          240 
 4160000          416    540734.36   0.32191938   0.06053037          450           24          240 
 4161000        416.1    540702.74   0.32177993   0.06053037          450           24          240 
 4162000        416.2    540658.29   0.32159424   0.06053037          450           24          240 
 4163000        416.3    540616.88   0.32139164   0.06053037          450           24          240 
 4164000        416.4    540524.02   0.32115577   0.06053037          450           24          240 
 4165000        416.5    540419.49   0.32109237   0.06053037          450           24          240 
 4166000        416.6    540294.89   0.32101441   0.06053037          450           24          240 
 4167000        416.7    540159.24   0.32097482   0.06053037          450           24          240 
 4168000        416.8     540010.4    0.3209212   0.06053037          450           24          240 
 4169000        416.9    539836.96   0.32072292   0.06053037          450           24          240 
 4170000          417    539629.82   0.32075728   0.06053037          450           24          240 
 4171000        417.1    539404.38   0.32074782   0.06053037          450           24          240 
 4172000        417.2    539172.19   0.32067148   0.06053037          450           24          240 
 4173000        417.3    538974.26   0.32064454   0.06053037          450           24          240 
 4174000        417.4    538742.91   0.32061238   0.06053037          450           24          240 
 4175000        417.5    538516.78   0.32043042   0.06053037          450           24          240 
 4176000        417.6    538322.12   0.32039384   0.06053037          450           24          240 
 4177000        417.7    538150.31   0.32057691   0.06053037          450           24          240 
 4178000        417.8    537916.25   0.32064597   0.06053037          450           24          240 
 4179000        417.9    537646.94   0.32056649   0.06053037          450           24          240 
 4180000          418    537432.94   0.32061448   0.06053037          450           24          240 
 4181000        418.1    537245.56   0.32086797   0.06053037          450           24          240 
 4182000        418.2    537079.25   0.32110309   0.06053037          450           24          240 
 4183000        418.3    536827.78    0.3212907   0.06053037          450           24          240 
 4184000        418.4    536647.45   0.32133854   0.06053037          450           24          240 
 4185000        418.5    536539.21   0.32134971   0.06053037          450           24          240 
 4186000        418.6    536421.68   0.32140547   0.06053037          450           24          240 
 4187000        418.7    536288.16   0.32156963   0.06053037          450           24          240 
 4188000        418.8    536156.92   0.32181566   0.06053037          450           24          240 
 4189000        418.9    536043.98   0.32201437   0.06053037          450           24          240 
 4190000          419    535992.63     0.322091   0.06053037          450           24          240 
 4191000        419.1    535874.86   0.32234642   0.06053037          450           24          240 
 4192000        419.2    535815.32   0.32272238   0.06053037          450           24          240 
 4193000        419.3       535733   0.32286363   0.06053037          450           24          240 
 4194000        419.4    535626.96   0.32300971   0.06053037          450           24          240 
 4195000        419.5    535526.88   0.32333971   0.06053037          450           24          240 
 4196000        419.6    535452.48   0.32362108   0.06053037          450           24          240 
 4197000        419.7    535358.25   0.32391382   0.06053037          450           24          240 
 4198000        419.8     535238.9   0.32427975   0.06053037          450           24          240 
 4199000        419.9    535139.48   0.32445737   0.06053037          450           24          240 
 4200000          420     535018.9   0.32469223   0.06053037          450           24          240 
 4201000        420.1    534933.27   0.32510867   0.06053037          450           24          240 
 4202000        420.2    534886.33   0.32552061   0.06053037          450           24          240 
 4203000        420.3     534786.2   0.32584108   0.06053037          450           24          240 
 4204000        420.4    534725.04   0.32605139   0.06053037          450           24          240 
 4205000        420.5    534697.06   0.32632184   0.06053037          450           24          240 
 4206000        420.6    534636.48   0.32660481   0.06053037          450           24          240 
 4207000        420.7     534603.5   0.32698457   0.06053037          450           24          240 
 4208000        420.8    534540.65   0.32742799   0.06053037          450           24          240 
 4209000        420.9    534543.01   0.32786364   0.06053037          450           24          240 
 4210000          421    534635.87    0.3282849   0.06053037          450           24          240 
 4211000        421.1    534701.12    0.3284362   0.06053037          450           24          240 
 4212000        421.2    534832.37   0.32876201   0.06053037          450           24          240 
 4213000        421.3    534946.95   0.32913727   0.06053037          450           24          240 
 4214000        421.4    535105.21   0.32951883   0.06053037          450           24          240 
 4215000        421.5     535304.2   0.32992918   0.06053037          450           24          240 
 4216000        421.6    535453.62   0.33051344   0.06053037          450           24          240 
 4217000        421.7    535646.93   0.33095928   0.06053037          450           24          240 
 4218000        421.8    535735.71   0.33128664   0.06053037          450           24          240 
 4219000        421.9    535780.86   0.33164991   0.06053037          450           24          240 
 4220000          422    535870.98   0.33212035   0.06053037          450           24          240 
 4221000        422.1    535983.16   0.33257783   0.06053037          450           24          240 
 4222000        422.2    535917.22   0.33301501   0.06053037          450           24          240 
 4223000        422.3    535894.26   0.33351387   0.06053037          450           24          240 
 4224000        422.4    535890.44   0.33396201   0.06053037          450           24          240 
 4225000        422.5     535879.2   0.33443961   0.06053037          450           24          240 
 4226000        422.6    535893.05   0.33496049   0.06053037          450           24          240 
 4227000        422.7    535734.99   0.33522844   0.06053037          450           24          240 
 4228000        422.8    535572.33   0.33556276   0.06053037          450           24          240 
 4229000        422.9    535540.55   0.33617204   0.06053037          450           24          240 
 4230000          423    535542.24   0.33667065   0.06053037          450           24          240 
 4231000        423.1    535475.09   0.33696063   0.06053037          450           24          240 
 4232000        423.2     535416.6    0.3373926   0.06053037          450           24          240 
 4233000        423.3    535402.87   0.33794944   0.06053037          450           24          240 
 4234000        423.4     535385.7   0.33837571   0.06053037          450           24          240 
 4235000        423.5    535361.59   0.33861753   0.06053037          450           24          240 
 4236000        423.6     535323.4   0.33901136   0.06053037          450           24          240 
 4237000        423.7    535241.08   0.33951333   0.06053037          450           24          240 
 4238000        423.8    535151.83   0.33989702   0.06053037          450           24          240 
 4239000        423.9    535073.58   0.34029558   0.06053037          450           24          240 
 4240000          424    535031.21   0.34068423   0.06053037          450           24          240 
 4241000        424.1    534997.26   0.34111143   0.06053037          450           24          240 
 4242000        424.2    535007.96   0.34145018   0.06053037          450           24          240 
 4243000        424.3    535030.67   0.34184956   0.06053037          450           24          240 
 4244000        424.4    535078.32   0.34214647   0.06053037          450           24          240 
 4245000        424.5       535068   0.34243297   0.06053037          450           24          240 
 4246000        424.6    535102.49   0.34286717   0.06053037          450           24          240 
 4247000        424.7    535132.59    0.3432245   0.06053037          450           24          240 
 4248000        424.8    535198.66   0.34355482   0.06053037          450           24          240 
 4249000        424.9    535267.57   0.34386443   0.06053037          450           24          240 
 4250000          425    535356.21   0.34413403   0.06053037          450           24          240 
 4251000        425.1    535510.57   0.34431872   0.06053037          450           24          240 
 4252000        425.2    535657.57   0.34461031   0.06053037          450           24          240 
 4253000        425.3    535861.37   0.34492291   0.06053037          450           24          240 
 4254000        425.4    536048.72    0.3451155   0.06053037          450           24          240 
 4255000        425.5    536204.86   0.34531263   0.06053037          450           24          240 
 4256000        425.6    536334.37   0.34551949   0.06053037          450           24          240 
 4257000        425.7    536461.15   0.34580872   0.06053037          450           24          240 
 4258000        425.8    536535.28   0.34600436   0.06053037          450           24          240 
 4259000        425.9    536626.65    0.3461288   0.06053037          450           24          240 
 4260000          426    536654.59   0.34626677   0.06053037          450           24          240 
 4261000        426.1    536753.84   0.34639746   0.06053037          450           24          240 
 4262000        426.2    536852.38   0.34649397   0.06053037          450           24          240 
 4263000        426.3    536907.37   0.34648603   0.06053037          450           24          240 
 4264000        426.4    537000.85   0.34638573   0.06053037          450           24          240 
 4265000        426.5    537115.03   0.34637513   0.06053037          450           24          240 
 4266000        426.6    537204.54   0.34651597   0.06053037          450           24          240 
 4267000        426.7    537312.19   0.34651994   0.06053037          450           24          240 
 4268000        426.8    537449.64    0.3463626   0.06053037          450           24          240 
 4269000        426.9    537576.83   0.34629953   0.06053037          450           24          240 
 4270000          427    537782.53     0.346288   0.06053037          450           24          240 
 4271000        427.1    537997.13   0.34615553   0.06053037          450           24          240 
 4272000        427.2    538252.46   0.34595939   0.06053037          450           24          240 
 4273000        427.3    538444.78    0.3457665   0.06053037          450           24          240 
 4274000        427.4     538639.1   0.34553973   0.06053037          450           24          240 
 4275000        427.5    538822.94   0.34534689   0.06053037          450           24          240 
 4276000        427.6    539070.66   0.34518836   0.06053037          450           24          240 
 4277000        427.7    539281.21   0.34492321   0.06053037          450           24          240 
 4278000        427.8    539520.78   0.34448032   0.06053037          450           24          240 
 4279000        427.9    539709.35   0.34404319   0.06053037          450           24          240 
 4280000          428    539929.17   0.34370337   0.06053037          450           24          240 
 4281000        428.1    540137.13   0.34326205   0.06053037          450           24          240 
 4282000        428.2    540336.78   0.34274445   0.06053037          450           24          240 
 4283000        428.3    540504.17   0.34243392   0.06053037          450           24          240 
 4284000        428.4    540584.15   0.34201188   0.06053037          450           24          240 
 4285000        428.5    540668.43   0.34136662   0.06053037          450           24          240 
 4286000        428.6    540822.57   0.34067124   0.06053037          450           24          240 
 4287000        428.7    541004.85   0.33997352   0.06053037          450           24          240 
 4288000        428.8    541195.94   0.33925641   0.06053037          450           24          240 
 4289000        428.9    541399.08    0.3385477   0.06053037          450           24          240 
 4290000          429    541641.75   0.33795806   0.06053037          450           24          240 
 4291000        429.1    541878.36    0.3372412   0.06053037          450           24          240 
 4292000        429.2    542158.03   0.33649762   0.06053037          450           24          240 
 4293000        429.3    542331.12   0.33563281   0.06053037          450           24          240 
 4294000        429.4    542485.06   0.33460058   0.06053037          450           24          240 
 4295000        429.5    542665.33   0.33359525   0.06053037          450           24          240 
 4296000        429.6    542828.76   0.33259055   0.06053037          450           24          240 
 4297000        429.7    542956.05   0.33156631   0.06053037          450           24          240 
 4298000        429.8    543091.23   0.33044005   0.06053037          450           24          240 
 4299000        429.9    543261.75   0.32919121   0.06053037          450           24          240 
 4300000          430    543435.13   0.32797158   0.06053037          450           24          240 
 4301000        430.1    543607.05    0.3267951   0.06053037          450           24          240 
 4302000        430.2    543712.35   0.32563454   0.06053037          450           24          240 
 4303000        430.3    543765.14    0.3243461   0.06053037          450           24          240 
 4304000        430.4    543790.48   0.32293378   0.06053037          450           24          240 
 4305000        430.5    543816.78   0.32152756   0.06053037          450           24          240 
 4306000        430.6    543846.32   0.32011715   0.06053037          450           24          240 
 4307000        430.7    543911.04   0.31868609   0.06053037          450           24          240 
 4308000        430.8    543934.15   0.31729023   0.06053037          450           24          240 
 4309000        430.9    544034.13   0.31570174   0.06053037          450           24          240 
 4310000          431       544223   0.31386582   0.06053037          450           24          240 
 4311000        431.1    544489.02   0.31212123   0.06053037          450           24          240 
 4312000        431.2    544763.36   0.31049643   0.06053037          450           24          240 
 4313000        431.3    544996.49   0.30872521   0.06053037          450           24          240 
 4314000        431.4    545266.38   0.30689829   0.06053037          450           24          240 
 4315000        431.5    545486.15   0.30512873   0.06053037          450           24          240 
 4316000        431.6    545674.35   0.30318051   0.06053037          450           24          240 
 4317000        431.7    545908.61   0.30121287   0.06053037          450           24          240 
 4318000        431.8    546131.94   0.29923953   0.06053037          450           24          240 
 4319000        431.9    546417.88   0.29718503   0.06053037          450           24          240 
 4320000          432    546826.74   0.29520589   0.06053037          450           24          240 
 4321000        432.1    547333.05   0.29295526   0.06053037          450           24          240 
 4322000        432.2    547808.36   0.29060756   0.06053037          450           24          240 
 4323000        432.3    548266.25   0.28849315   0.06053037          450           24          240 
 4324000        432.4    548732.44   0.28633704   0.06053037          450           24          240 
 4325000        432.5    549190.13   0.28399681   0.06053037          450           24          240 
 4326000        432.6    549594.15   0.28180201   0.06053037          450           24          240 
 4327000        432.7    549893.17   0.27953939   0.06053037          450           24          240 
 4328000        432.8    550207.82   0.27701112   0.06053037          450           24          240 
 4329000        432.9    550494.86   0.27451073   0.06053037          450           24          240 
 4330000          433    550737.89   0.27195599   0.06053037          450           24          240 
 4331000        433.1    551001.74   0.26941242   0.06053037          450           24          240 
 4332000        433.2    551256.43   0.26676594   0.06053037          450           24          240 
 4333000        433.3    551486.61   0.26421807   0.06053037          450           24          240 
 4334000        433.4    551757.97   0.26154196   0.06053037          450           24          240 
 4335000        433.5    552035.22   0.25878963   0.06053037          450           24          240 
 4336000        433.6    552328.68   0.25613393   0.06053037          450           24          240 
 4337000        433.7     552609.7   0.25349622   0.06053037          450           24          240 
 4338000        433.8    552897.69   0.25062993   0.06053037          450           24          240 
 4339000        433.9     553238.9   0.24771155   0.06053037          450           24          240 
 4340000          434     553550.6   0.24465835   0.06053037          450           24          240 
 4341000        434.1    553797.61    0.2417787   0.06053037          450           24          240 
 4342000        434.2    554061.12   0.23888011   0.06053037          450           24          240 
 4343000        434.3     554241.2   0.23583387   0.06053037          450           24          240 
 4344000        434.4     554330.2   0.23284156   0.06053037          450           24          240 
 4345000        434.5    554473.13   0.22975689   0.06053037          450           24          240 
 4346000        434.6    554633.75   0.22654173   0.06053037          450           24          240 
 4347000        434.7    554815.79   0.22336996   0.06053037          450           24          240 
 4348000        434.8    554947.62   0.22017435   0.06053037          450           24          240 
 4349000        434.9    555173.85   0.21695293   0.06053037          450           24          240 
 4350000          435    555389.09   0.21376535   0.06053037          450           24          240 
 4351000        435.1    555627.24   0.21042592   0.06053037          450           24          240 
 4352000        435.2    555906.94   0.20714559   0.06053037          450           24          240 
 4353000        435.3    556147.97   0.20397371   0.06053037          450           24          240 
 4354000        435.4    556364.11   0.20073477   0.06053037          450           24          240 
 4355000        435.5    556574.34     0.197496   0.06053037          450           24          240 
 4356000        435.6     556821.6   0.19413986   0.06053037          450           24          240 
 4357000        435.7     557127.1   0.19067651   0.06053037          450           24          240 
 4358000        435.8    557440.11   0.18723179   0.06053037          450           24          240 
 4359000        435.9    557787.53   0.18386709   0.06053037          450           24          240 
 4360000          436    558112.53   0.18049565   0.06053037          450           24          240 
 4361000        436.1    558480.28   0.17709278   0.06053037          450           24          240 
 4362000        436.2    558876.24   0.17366388   0.06053037          450           24          240 
 4363000        436.3    559282.85   0.17023992   0.06053037          450           24          240 
 4364000        436.4    559710.25   0.16695918   0.06053037          450           24          240 
 4365000        436.5    560169.55   0.16355094   0.06053037          450           24          240 
 4366000        436.6    560620.33   0.16008182   0.06053037          450           24          240 
 4367000        436.7    561050.24   0.15666824   0.06053037          450           24          240 
 4368000        436.8    561388.72   0.15334802   0.06053037          450           24          240 
 4369000        436.9    561739.92    0.1500596   0.06053037          450           24          240 
 4370000          437    562062.73   0.14671728   0.06053037          450           24          240 
 4371000        437.1    562464.03   0.14319167   0.06053037          450           24          240 
 4372000        437.2    562852.45   0.13988573   0.06053037          450           24          240 
 4373000        437.3    563282.94   0.13653594   0.06053037          450           24          240 
 4374000        437.4    563779.86   0.13320751   0.06053037          450           24          240 
 4375000        437.5     564262.2   0.12988799   0.06053037          450           24          240 
 4376000        437.6    564693.88    0.1264456   0.06053037          450           24          240 
 4377000        437.7    565150.37   0.12308177   0.06053037          450           24          240 
 4378000        437.8     565598.5   0.11985757   0.06053037          450           24          240 
 4379000        437.9    566006.68   0.11672638   0.06053037          450           24          240 
 4380000          438    566434.79   0.11357397   0.06053037          450           24          240 
 4381000        438.1    566835.82   0.11039291   0.06053037          450           24          240 
 4382000        438.2    567140.29   0.10726737   0.06053037          450           24          240 
 4383000        438.3    567362.93   0.10425947   0.06053037          450           24          240 
 4384000        438.4    567609.49    0.1011381   0.06053037          450           24          240 
 4385000        438.5    567864.92  0.098079911   0.06053037          450           24          240 
 4386000        438.6    568094.68  0.095187011   0.06053037          450           24          240 
 4387000        438.7    568337.53  0.092238488   0.06053037          450           24          240 
 4388000        438.8    568611.57  0.089255245   0.06053037          450           24          240 
 4389000        438.9    568860.93  0.086358714   0.06053037          450           24          240 
 4390000          439    569060.06  0.083540715   0.06053037          450           24          240 
 4391000        439.1    569284.72  0.080915074   0.06053037          450           24          240 
 4392000        439.2    569617.82  0.078288872   0.06053037          450           24          240 
 4393000        439.3    569860.09  0.075636817   0.06053037          450           24          240 
 4394000        439.4    570127.41  0.072915996   0.06053037          450           24          240 
 4395000        439.5    570400.91  0.070290124   0.06053037          450           24          240 
 4396000        439.6    570711.38   0.06787047   0.06053037          450           24          240 
 4397000        439.7     571036.8  0.065515051   0.06053037          450           24          240 
 4398000        439.8    571403.54   0.06320345   0.06053037          450           24          240 
 4399000        439.9    571785.88  0.060993613   0.06053037          450           24          240 
 4400000          440    572139.84  0.058789663   0.06053037          450           24          240 
 4401000        440.1    572481.63  0.056671274   0.06053037          450           24          240 
 4402000        440.2    572905.46  0.054533287   0.06053037          450           24          240 
 4403000        440.3    573305.71  0.052562513   0.06053037          450           24          240 
 4404000        440.4    573675.56  0.050713038   0.06053037          450           24          240 
 4405000        440.5    573964.84  0.049020364   0.06053037          450           24          240 
 4406000        440.6    574255.01  0.047340401   0.06053037          450           24          240 
 4407000        440.7    574536.09  0.045607354   0.06053037          450           24          240 
 4408000        440.8    574849.61  0.043915233   0.06053037          450           24          240 
 4409000        440.9    575082.21  0.042528257   0.06053037          450           24          240 
 4410000          441    575196.04  0.041292015   0.06053037          450           24          240 
 4411000        441.1     575388.4  0.040048755   0.06053037          450           24          240 
 4412000        441.2    575568.92  0.038757389   0.06053037          450           24          240 
 4413000        441.3    575657.38  0.037723134   0.06053037          450           24          240 
 4414000        441.4    575845.23  0.036800107   0.06053037          450           24          240 
 4415000        441.5    576029.17  0.035735363   0.06053037          450           24          240 
 4416000        441.6    576189.62  0.034895723   0.06053037          450           24          240 
 4417000        441.7    576415.05  0.034259076   0.06053037          450           24          240 
 4418000        441.8    576635.18  0.033908531   0.06053037          450           24          240 
 4419000        441.9    576879.24  0.033550325   0.06053037          450           24          240 
 4420000          442    577081.99  0.033237541   0.06053037          450           24          240 
 4421000        442.1    577279.48   0.03312442   0.06053037          450           24          240 
 4422000        442.2    577471.45  0.033210123   0.06053037          450           24          240 
 4423000        442.3    577755.76  0.033383464   0.06053037          450           24          240 
 4424000        442.4    578051.07  0.033640884   0.06053037          450           24          240 
 4425000        442.5    578282.07  0.034148774   0.06053037          450           24          240 
 4426000        442.6    578537.13  0.034809399   0.06053037          450           24          240 
 4427000        442.7    578784.28  0.035533873   0.06053037          450           24          240 
 4428000        442.8    579017.32  0.036378953   0.06053037          450           24          240 
 4429000        442.9    579282.88  0.037370327   0.06053037          450           24          240 
 4430000          443    579530.49  0.038426999   0.06053037          450           24          240 
 4431000        443.1    579801.07  0.039456766   0.06053037          450           24          240 
 4432000        443.2    580044.62  0.040726277   0.06053037          450           24          240 
 4433000        443.3    580215.89  0.042217949   0.06053037          450           24          240 
 4434000        443.4    580371.61    0.0436899   0.06053037          450           24          240 
 4435000        443.5     580445.8  0.045332236   0.06053037          450           24          240 
 4436000        443.6    580488.99  0.046947886   0.06053037          450           24          240 
 4437000        443.7    580530.49  0.048505292   0.06053037          450           24          240 
 4438000        443.8    580475.48  0.050274728   0.06053037          450           24          240 
 4439000        443.9    580484.94  0.052169783   0.06053037          450           24          240 
 4440000          444     580479.2  0.054063091   0.06053037          450           24          240 
 4441000        444.1    580485.39  0.056109939   0.06053037          450           24          240 
 4442000        444.2    580505.29  0.058157336   0.06053037          450           24          240 
 4443000        444.3    580542.49  0.060322473   0.06053037          450           24          240 
 4444000        444.4    580636.99  0.062543212   0.06053037          450           24          240 
 4445000        444.5    580758.02   0.06474916   0.06053037          450           24          240 
 4446000        444.6    580835.67  0.067131321   0.06053037          450           24          240 
 4447000        444.7    580811.38  0.069724185   0.06053037          450           24          240 
 4448000        444.8    580854.85  0.072367711   0.06053037          450           24          240 
 4449000        444.9    580820.96  0.074938072   0.06053037          450           24          240 
 4450000          445    580744.08  0.077468886   0.06053037          450           24          240 
 4451000        445.1    580592.17  0.080002217   0.06053037          450           24          240 
 4452000        445.2    580380.38  0.082666072   0.06053037          450           24          240 
 4453000        445.3    580258.01  0.085558464   0.06053037          450           24          240 
 4454000        445.4    580180.27  0.088359223   0.06053037          450           24          240 
 4455000        445.5    580089.61  0.091313564   0.06053037          450           24          240 
 4456000        445.6    579977.45  0.094351524   0.06053037          450           24          240 
 4457000        445.7    579847.74  0.097292237   0.06053037          450           24          240 
 4458000        445.8     579739.2   0.10025734   0.06053037          450           24          240 
 4459000        445.9    579579.71   0.10342026   0.06053037          450           24          240 
 4460000          446    579455.51   0.10655846   0.06053037          450           24          240 
 4461000        446.1    579306.38   0.10965491   0.06053037          450           24          240 
 4462000        446.2     579238.5   0.11279958   0.06053037          450           24          240 
 4463000        446.3    579292.19   0.11593339   0.06053037          450           24          240 
 4464000        446.4    579304.37   0.11909661   0.06053037          450           24          240 
 4465000        446.5    579295.78   0.12227821   0.06053037          450           24          240 
 4466000        446.6    579265.25    0.1254893   0.06053037          450           24          240 
 4467000        446.7    579221.22   0.12881416   0.06053037          450           24          240 
 4468000        446.8    579141.51   0.13218919   0.06053037          450           24          240 
 4469000        446.9    579078.25   0.13557785   0.06053037          450           24          240 
 4470000          447    579003.04   0.13903901   0.06053037          450           24          240 
 4471000        447.1    578959.01   0.14237858   0.06053037          450           24          240 
 4472000        447.2    578906.55   0.14560472   0.06053037          450           24          240 
 4473000        447.3    578845.88   0.14903981   0.06053037          450           24          240 
 4474000        447.4    578790.59   0.15255404   0.06053037          450           24          240 
 4475000        447.5    578722.01   0.15597336   0.06053037          450           24          240 
 4476000        447.6    578606.61   0.15933072   0.06053037          450           24          240 
 4477000        447.7    578502.95   0.16264359   0.06053037          450           24          240 
 4478000        447.8    578375.03   0.16613101   0.06053037          450           24          240 
 4479000        447.9    578197.91   0.16959247   0.06053037          450           24          240 
 4480000          448    577927.47   0.17302569   0.06053037          450           24          240 
 4481000        448.1    577606.69   0.17650798   0.06053037          450           24          240 
 4482000        448.2    577234.64   0.17988624   0.06053037          450           24          240 
 4483000        448.3    576926.17    0.1832604   0.06053037          450           24          240 
 4484000        448.4    576576.94   0.18679822   0.06053037          450           24          240 
 4485000        448.5    576161.49    0.1903057   0.06053037          450           24          240 
 4486000        448.6    575700.53   0.19352985   0.06053037          450           24          240 
 4487000        448.7    575203.31    0.1966766   0.06053037          450           24          240 
 4488000        448.8    574643.29   0.20006487   0.06053037          450           24          240 
 4489000        448.9    574096.19   0.20345416   0.06053037          450           24          240 
 4490000          449    573550.05   0.20667414   0.06053037          450           24          240 
 4491000        449.1    573020.05   0.20985118   0.06053037          450           24          240 
 4492000        449.2    572477.85   0.21314211   0.06053037          450           24          240 
 4493000        449.3    572003.73   0.21653556   0.06053037          450           24          240 
 4494000        449.4    571468.32   0.21974958   0.06053037          450           24          240 
 4495000        449.5    570970.66   0.22287288   0.06053037          450           24          240 
 4496000        449.6    570548.39   0.22608923   0.06053037          450           24          240 
 4497000        449.7    570190.43   0.22922348   0.06053037          450           24          240 
 4498000        449.8    569827.05   0.23225381   0.06053037          450           24          240 
 4499000        449.9    569470.28   0.23529119   0.06053037          450           24          240 
 4500000          450    569098.77   0.23814456   0.06053037          450           24          240 
 4501000        450.1    568770.25   0.24106547   0.06053037          450           24          240 
 4502000        450.2    568501.13   0.24402263   0.06053037          450           24          240 
 4503000        450.3    568244.04   0.24685785   0.06053037          450           24          240 
 4504000        450.4    567957.19   0.24973017   0.06053037          450           24          240 
 4505000        450.5     567662.1   0.25254982   0.06053037          450           24          240 
 4506000        450.6    567343.69   0.25543585   0.06053037          450           24          240 
 4507000        450.7    566956.85   0.25821722   0.06053037          450           24          240 
 4508000        450.8    566532.92   0.26103805   0.06053037          450           24          240 
 4509000        450.9    566036.51   0.26398322   0.06053037          450           24          240 
 4510000          451    565579.88   0.26652313   0.06053037          450           24          240 
 4511000        451.1    565116.77   0.26900766   0.06053037          450           24          240 
 4512000        451.2    564625.23   0.27153215   0.06053037          450           24          240 
 4513000        451.3    564135.13   0.27407051   0.06053037          450           24          240 
 4514000        451.4    563654.29   0.27662291   0.06053037          450           24          240 
 4515000        451.5     563141.9   0.27905264   0.06053037          450           24          240 
 4516000        451.6       562670   0.28138005   0.06053037          450           24          240 
 4517000        451.7    562174.57   0.28376635   0.06053037          450           24          240 
 4518000        451.8    561683.14   0.28621775   0.06053037          450           24          240 
 4519000        451.9    561157.11   0.28849542   0.06053037          450           24          240 
 4520000          452    560631.79   0.29058509   0.06053037          450           24          240 
 4521000        452.1    560233.22   0.29274855   0.06053037          450           24          240 
 4522000        452.2    559831.91   0.29487606   0.06053037          450           24          240 
 4523000        452.3    559415.21   0.29694785   0.06053037          450           24          240 
 4524000        452.4    558931.77   0.29900359   0.06053037          450           24          240 
 4525000        452.5    558369.25   0.30109847   0.06053037          450           24          240 
 4526000        452.6    557771.59   0.30309769   0.06053037          450           24          240 
 4527000        452.7     557185.6   0.30499525   0.06053037          450           24          240 
 4528000        452.8    556617.97   0.30688628   0.06053037          450           24          240 
 4529000        452.9    556069.85   0.30864993   0.06053037          450           24          240 
 4530000          453    555483.45   0.31037485   0.06053037          450           24          240 
 4531000        453.1    554922.76   0.31215053   0.06053037          450           24          240 
 4532000        453.2    554328.73   0.31385879   0.06053037          450           24          240 
 4533000        453.3    553768.95   0.31553472   0.06053037          450           24          240 
 4534000        453.4    553239.47   0.31708515   0.06053037          450           24          240 
 4535000        453.5    552762.81   0.31864264   0.06053037          450           24          240 
 4536000        453.6    552339.78   0.32014553   0.06053037          450           24          240 
 4537000        453.7    552022.78    0.3214631   0.06053037          450           24          240 
 4538000        453.8    551753.57   0.32289033   0.06053037          450           24          240 
 4539000        453.9    551587.16   0.32430297   0.06053037          450           24          240 
 4540000          454    551490.44   0.32568778   0.06053037          450           24          240 
 4541000        454.1    551406.24   0.32694659   0.06053037          450           24          240 
 4542000        454.2    551272.29   0.32822539   0.06053037          450           24          240 
 4543000        454.3    551205.03   0.32954453   0.06053037          450           24          240 
 4544000        454.4    551146.94   0.33066341   0.06053037          450           24          240 
 4545000        454.5    551070.14   0.33164079   0.06053037          450           24          240 
 4546000        454.6    551028.44   0.33285484   0.06053037          450           24          240 
 4547000        454.7    550980.42    0.3339421   0.06053037          450           24          240 
 4548000        454.8    550929.18    0.3348713   0.06053037          450           24          240 
 4549000        454.9     550797.5   0.33572309   0.06053037          450           24          240 
 4550000          455    550701.74   0.33660455   0.06053037          450           24          240 
 4551000        455.1    550512.76   0.33743716   0.06053037          450           24          240 
 4552000        455.2    550310.67   0.33828406   0.06053037          450           24          240 
 4553000        455.3    550088.54   0.33912075   0.06053037          450           24          240 
 4554000        455.4    549748.35   0.33980221   0.06053037          450           24          240 
 4555000        455.5    549434.21   0.34044137   0.06053037          450           24          240 
 4556000        455.6    548977.34   0.34129808   0.06053037          450           24          240 
 4557000        455.7    548500.81   0.34209446   0.06053037          450           24          240 
 4558000        455.8    547976.15    0.3426119   0.06053037          450           24          240 
 4559000        455.9     547436.7   0.34296872   0.06053037          450           24          240 
 4560000          456    546918.71   0.34344806   0.06053037          450           24          240 
 4561000        456.1    546465.73   0.34399697   0.06053037          450           24          240 
 4562000        456.2     545999.6    0.3444695   0.06053037          450           24          240 
 4563000        456.3     545514.2   0.34486288   0.06053037          450           24          240 
 4564000        456.4    545159.78    0.3451823   0.06053037          450           24          240 
 4565000        456.5    544882.21   0.34550025   0.06053037          450           24          240 
 4566000        456.6    544583.79   0.34575136   0.06053037          450           24          240 
 4567000        456.7    544333.97   0.34597409   0.06053037          450           24          240 
 4568000        456.8    544136.92   0.34633504   0.06053037          450           24          240 
 4569000        456.9    543896.48   0.34653946   0.06053037          450           24          240 
 4570000          457    543535.36   0.34661277   0.06053037          450           24          240 
 4571000        457.1    543223.42   0.34677204   0.06053037          450           24          240 
 4572000        457.2    542934.64   0.34695664   0.06053037          450           24          240 
 4573000        457.3    542651.69    0.3470221   0.06053037          450           24          240 
 4574000        457.4    542344.15    0.3470956   0.06053037          450           24          240 
 4575000        457.5    542049.63   0.34708246   0.06053037          450           24          240 
 4576000        457.6    541731.85   0.34713489   0.06053037          450           24          240 
 4577000        457.7    541336.76   0.34721223   0.06053037          450           24          240 
 4578000        457.8    540881.01   0.34705015   0.06053037          450           24          240 
 4579000        457.9    540532.37   0.34695231   0.06053037          450           24          240 
 4580000          458    540160.74   0.34694853   0.06053037          450           24          240 
 4581000        458.1    539832.23   0.34691945   0.06053037          450           24          240 
 4582000        458.2    539613.49   0.34677753   0.06053037          450           24          240 
 4583000        458.3    539362.86   0.34658064   0.06053037          450           24          240 
 4584000        458.4     539077.1   0.34646962   0.06053037          450           24          240 
 4585000        458.5    538777.34   0.34642343   0.06053037          450           24          240 
 4586000        458.6    538567.19   0.34620545   0.06053037          450           24          240 
 4587000        458.7    538423.47   0.34586103   0.06053037          450           24          240 
 4588000        458.8    538213.75   0.34555693   0.06053037          450           24          240 
 4589000        458.9     538053.7   0.34531562   0.06053037          450           24          240 
 4590000          459    537910.78   0.34515636   0.06053037          450           24          240 
 4591000        459.1    537745.41   0.34496368   0.06053037          450           24          240 
 4592000        459.2       537530   0.34468271   0.06053037          450           24          240 
 4593000        459.3    537300.75   0.34438599   0.06053037          450           24          240 
 4594000        459.4    537039.82   0.34418403   0.06053037          450           24          240 
 4595000        459.5    536803.62   0.34383495   0.06053037          450           24          240 
 4596000        459.6    536609.39   0.34350189   0.06053037          450           24          240 
 4597000        459.7    536480.37   0.34307627   0.06053037          450           24          240 
 4598000        459.8    536411.14   0.34269872   0.06053037          450           24          240 
 4599000        459.9    536362.05   0.34238418   0.06053037          450           24          240 
 4600000          460    536307.54   0.34196727   0.06053037          450           24          240 
 4601000        460.1    536306.55   0.34156626   0.06053037          450           24          240 
 4602000        460.2    536268.25   0.34123848   0.06053037          450           24          240 
 4603000        460.3    536271.22   0.34095785   0.06053037          450           24          240 
 4604000        460.4    536320.73   0.34058321   0.06053037          450           24          240 
 4605000        460.5    536365.28   0.34005418   0.06053037          450           24          240 
 4606000        460.6    536360.82   0.33959909   0.06053037          450           24          240 
 4607000        460.7    536344.38    0.3391362   0.06053037          450           24          240 
 4608000        460.8    536378.57     0.338659   0.06053037          450           24          240 
 4609000        460.9    536430.45   0.33821547   0.06053037          450           24          240 
 4610000          461    536510.36   0.33772334   0.06053037          450           24          240 
 4611000        461.1    536557.71   0.33727336   0.06053037          450           24          240 
 4612000        461.2     536621.6    0.3368694   0.06053037          450           24          240 
 4613000        461.3    536686.22   0.33655266   0.06053037          450           24          240 
 4614000        461.4    536728.13   0.33620743   0.06053037          450           24          240 
 4615000        461.5    536803.72   0.33569794   0.06053037          450           24          240 
 4616000        461.6    536872.48   0.33522576   0.06053037          450           24          240 
 4617000        461.7     537000.5   0.33494013   0.06053037          450           24          240 
 4618000        461.8    537078.13   0.33448297   0.06053037          450           24          240 
 4619000        461.9    537122.22   0.33395724   0.06053037          450           24          240 
 4620000          462    537072.26   0.33355033   0.06053037          450           24          240 
 4621000        462.1    537029.63   0.33316092   0.06053037          450           24          240 
 4622000        462.2    537052.38   0.33274241   0.06053037          450           24          240 
 4623000        462.3    537100.01   0.33229997   0.06053037          450           24          240 
 4624000        462.4    537143.57   0.33183891   0.06053037          450           24          240 
 4625000        462.5       537277   0.33137365   0.06053037          450           24          240 
 4626000        462.6    537397.53   0.33091389   0.06053037          450           24          240 
 4627000        462.7    537642.65   0.33034754   0.06053037          450           24          240 
 4628000        462.8     537916.4   0.32983818   0.06053037          450           24          240 
 4629000        462.9    538222.16   0.32941563   0.06053037          450           24          240 
 4630000          463    538476.85   0.32904682   0.06053037          450           24          240 
 4631000        463.1    538657.03   0.32868702   0.06053037          450           24          240 
 4632000        463.2     538814.3   0.32835883   0.06053037          450           24          240 
 4633000        463.3    538964.62   0.32794249   0.06053037          450           24          240 
 4634000        463.4    539067.26   0.32743493   0.06053037          450           24          240 
 4635000        463.5    539175.67   0.32704641   0.06053037          450           24          240 
 4636000        463.6    539285.97   0.32677205   0.06053037          450           24          240 
 4637000        463.7    539379.31   0.32642426   0.06053037          450           24          240 
 4638000        463.8    539505.45   0.32606148   0.06053037          450           24          240 
 4639000        463.9     539587.3   0.32573271   0.06053037          450           24          240 
 4640000          464    539657.13    0.3253876   0.06053037          450           24          240 
 4641000        464.1    539663.74   0.32502532   0.06053037          450           24          240 
 4642000        464.2    539658.03    0.3246586   0.06053037          450           24          240 
 4643000        464.3    539639.55   0.32427114   0.06053037          450           24          240 
 4644000        464.4    539714.52   0.32406804   0.06053037          450           24          240 
 4645000        464.5    539785.16   0.32378054   0.06053037          450           24          240 
 4646000        464.6     539884.3   0.32343373   0.06053037          450           24          240 
 4647000        464.7    539976.49   0.32320323   0.06053037          450           24          240 
 4648000        464.8    540101.25   0.32285082   0.06053037          450           24          240 
 4649000        464.9    540264.39   0.32256321   0.06053037          450           24          240 
 4650000          465    540384.48   0.32244474   0.06053037          450           24          240 
 4651000        465.1    540454.54   0.32216308   0.06053037          450           24          240 
 4652000        465.2     540518.9   0.32169337   0.06053037          450           24          240 
 4653000        465.3    540683.92   0.32151276   0.06053037          450           24          240 
 4654000        465.4    540976.82   0.32151831   0.06053037          450           24          240 
 4655000        465.5    541200.52   0.32134318   0.06053037          450           24          240 
 4656000        465.6    541463.74   0.32107284   0.06053037          450           24          240 
 4657000        465.7    541716.64   0.32082148   0.06053037          450           24          240 
 4658000        465.8    541985.45   0.32056663   0.06053037          450           24          240 
 4659000        465.9    542210.49   0.32045539   0.06053037          450           24          240 
 4660000          466     542409.3   0.32040634   0.06053037          450           24          240 
 4661000        466.1    542573.22   0.32045479   0.06053037          450           24          240 
 4662000        466.2    542740.24    0.3204794   0.06053037          450           24          240 
 4663000        466.3    542909.58   0.32044733   0.06053037          450           24          240 
 4664000        466.4    543155.52   0.32038459   0.06053037          450           24          240 
 4665000        466.5    543339.62   0.32022023   0.06053037          450           24          240 
 4666000        466.6    543591.39   0.32005252   0.06053037          450           24          240 
 4667000        466.7    543827.08   0.31999728   0.06053037          450           24          240 
 4668000        466.8     544023.6   0.31998942   0.06053037          450           24          240 
 4669000        466.9    544255.92   0.31993887   0.06053037          450           24          240 
 4670000          467    544509.87   0.31978016   0.06053037          450           24          240 
 4671000        467.1    544722.56   0.31982805   0.06053037          450           24          240 
 4672000        467.2    544891.32   0.31991837   0.06053037          450           24          240 
 4673000        467.3    545020.87    0.3200767   0.06053037          450           24          240 
 4674000        467.4    545140.37   0.32013398   0.06053037          450           24          240 
 4675000        467.5     545252.1   0.32019104   0.06053037          450           24          240 
 4676000        467.6    545330.97   0.32024207   0.06053037          450           24          240 
 4677000        467.7    545356.55   0.32035713   0.06053037          450           24          240 
 4678000        467.8    545383.87   0.32051635   0.06053037          450           24          240 
 4679000        467.9    545454.78   0.32061152   0.06053037          450           24          240 
 4680000          468    545541.96   0.32066499   0.06053037          450           24          240 
 4681000        468.1    545630.22   0.32075383   0.06053037          450           24          240 
 4682000        468.2    545706.19   0.32096612   0.06053037          450           24          240 
 4683000        468.3    545742.59    0.3211729   0.06053037          450           24          240 
 4684000        468.4    545800.99   0.32143703   0.06053037          450           24          240 
 4685000        468.5     545710.8   0.32161635   0.06053037          450           24          240 
 4686000        468.6    545601.58   0.32174314   0.06053037          450           24          240 
 4687000        468.7    545463.87   0.32198479   0.06053037          450           24          240 
 4688000        468.8     545337.7   0.32221487   0.06053037          450           24          240 
 4689000        468.9    545258.47   0.32250139   0.06053037          450           24          240 
 4690000          469    545135.34   0.32279488   0.06053037          450           24          240 
 4691000        469.1    545037.24   0.32305831   0.06053037          450           24          240 
 4692000        469.2    544964.98   0.32327119   0.06053037          450           24          240 
 4693000        469.3    544854.15   0.32346707   0.06053037          450           24          240 
 4694000        469.4    544718.98   0.32374365   0.06053037          450           24          240 
 4695000        469.5    544570.98   0.32396832   0.06053037          450           24          240 
 4696000        469.6       544409   0.32430144   0.06053037          450           24          240 
 4697000        469.7    544245.77   0.32464946   0.06053037          450           24          240 
 4698000        469.8    544071.44   0.32494128   0.06053037          450           24          240 
 4699000        469.9    543844.62   0.32532447   0.06053037          450           24          240 
 4700000          470    543540.25   0.32582299   0.06053037          450           24          240 
 4701000        470.1     543246.9   0.32625696   0.06053037          450           24          240 
 4702000        470.2    542917.58   0.32661146   0.06053037          450           24          240 
 4703000        470.3    542544.48   0.32690574   0.06053037          450           24          240 
 4704000        470.4    542171.86   0.32723607   0.06053037          450           24          240 
 4705000        470.5    541740.72   0.32754795   0.06053037          450           24          240 
 4706000        470.6    541387.98   0.32786806   0.06053037          450           24          240 
 4707000        470.7    541078.77   0.32820197   0.06053037          450           24          240 
 4708000        470.8    540786.43    0.3284439   0.06053037          450           24          240 
 4709000        470.9    540473.99   0.32871127   0.06053037          450           24          240 
 4710000          471    540142.66   0.32911363   0.06053037          450           24          240 
 4711000        471.1    539804.57   0.32970469   0.06053037          450           24          240 
 4712000        471.2    539532.27   0.33034498   0.06053037          450           24          240 
 4713000        471.3    539237.21   0.33078093   0.06053037          450           24          240 
 4714000        471.4    538875.22   0.33121339   0.06053037          450           24          240 
 4715000        471.5    538608.57   0.33159461   0.06053037          450           24          240 
 4716000        471.6    538317.02   0.33188168   0.06053037          450           24          240 
 4717000        471.7    538017.01   0.33225566   0.06053037          450           24          240 
 4718000        471.8    537715.48   0.33269883   0.06053037          450           24          240 
 4719000        471.9    537420.58   0.33310888   0.06053037          450           24          240 
 4720000          472    537103.52    0.3334611   0.06053037          450           24          240 
 4721000        472.1    536775.96   0.33388367   0.06053037          450           24          240 
 4722000        472.2    536503.11   0.33451018   0.06053037          450           24          240 
 4723000        472.3    536230.12   0.33505971   0.06053037          450           24          240 
 4724000        472.4    535836.73    0.3355319   0.06053037          450           24          240 
 4725000        472.5    535383.37   0.33592417   0.06053037          450           24          240 
 4726000        472.6    534938.98    0.3363476   0.06053037          450           24          240 
 4727000        472.7    534425.68   0.33695505   0.06053037          450           24          240 
 4728000        472.8    533913.34   0.33739507   0.06053037          450           24          240 
 4729000        472.9    533388.06   0.33781691   0.06053037          450           24          240 
 4730000          473    532955.13   0.33828556   0.06053037          450           24          240 
 4731000        473.1    532616.19     0.338733   0.06053037          450           24          240 
 4732000        473.2    532298.21    0.3391488   0.06053037          450           24          240 
 4733000        473.3     531971.3   0.33949515   0.06053037          450           24          240 
 4734000        473.4    531675.14   0.33981926   0.06053037          450           24          240 
 4735000        473.5    531414.86   0.34014783   0.06053037          450           24          240 
 4736000        473.6    531153.21   0.34046743   0.06053037          450           24          240 
 4737000        473.7    530867.83   0.34087546   0.06053037          450           24          240 
 4738000        473.8    530605.23   0.34135226   0.06053037          450           24          240 
 4739000        473.9     530318.5   0.34170026   0.06053037          450           24          240 
 4740000          474    530013.93   0.34200468   0.06053037          450           24          240 
 4741000        474.1    529643.78   0.34237861   0.06053037          450           24          240 
 4742000        474.2    529234.34   0.34285091   0.06053037          450           24          240 
 4743000        474.3    528858.68   0.34328639   0.06053037          450           24          240 
 4744000        474.4    528503.51    0.3435826   0.06053037          450           24          240 
 4745000        474.5    528125.78   0.34374069   0.06053037          450           24          240 
 4746000        474.6    527719.87   0.34406611   0.06053037          450           24          240 
 4747000        474.7    527288.83   0.34440523   0.06053037          450           24          240 
 4748000        474.8    526918.25   0.34449912   0.06053037          450           24          240 
 4749000        474.9    526593.75     0.344736   0.06053037          450           24          240 
 4750000          475    526323.39   0.34512585   0.06053037          450           24          240 
 4751000        475.1    525984.33   0.34540212   0.06053037          450           24          240 
 4752000        475.2    525660.92   0.34556053   0.06053037          450           24          240 
 4753000        475.3    525351.77   0.34559518   0.06053037          450           24          240 
 4754000        475.4    525077.71   0.34566198   0.06053037          450           24          240 
 4755000        475.5    524800.62   0.34593339   0.06053037          450           24          240 
 4756000        475.6    524492.26   0.34612753   0.06053037          450           24          240 
 4757000        475.7    524107.39   0.34622706   0.06053037          450           24          240 
 4758000        475.8    523697.54   0.34622011   0.06053037          450           24          240 
 4759000        475.9    523324.02   0.34623158   0.06053037          450           24          240 
 4760000          476    522932.02   0.34631304   0.06053037          450           24          240 
 4761000        476.1     522431.1   0.34636895   0.06053037          450           24          240 
 4762000        476.2    521973.17    0.3464057   0.06053037          450           24          240 
 4763000        476.3     521566.1   0.34641049   0.06053037          450           24          240 
 4764000        476.4    521155.87   0.34633858   0.06053037          450           24          240 
 4765000        476.5    520819.15   0.34625022   0.06053037          450           24          240 
 4766000        476.6    520514.26   0.34604476   0.06053037          450           24          240 
 4767000        476.7    520200.29   0.34586658   0.06053037          450           24          240 
 4768000        476.8    519909.37   0.34570489   0.06053037          450           24          240 
 4769000        476.9    519639.27   0.34554722   0.06053037          450           24          240 
 4770000          477       519411   0.34536705   0.06053037          450           24          240 
 4771000        477.1    519284.22   0.34503754   0.06053037          450           24          240 
 4772000        477.2    519161.39   0.34471858   0.06053037          450           24          240 
 4773000        477.3    519020.56   0.34429456   0.06053037          450           24          240 
 4774000        477.4    518958.09    0.3439021   0.06053037          450           24          240 
 4775000        477.5    518894.84   0.34357516   0.06053037          450           24          240 
 4776000        477.6     518878.5   0.34313301   0.06053037          450           24          240 
 4777000        477.7    518902.31   0.34275008   0.06053037          450           24          240 
 4778000        477.8    518956.59   0.34236376   0.06053037          450           24          240 
 4779000        477.9    519041.47   0.34176306   0.06053037          450           24          240 
 4780000          478    519149.65   0.34119186   0.06053037          450           24          240 
 4781000        478.1    519270.77   0.34062951   0.06053037          450           24          240 
 4782000        478.2    519391.87   0.33996882   0.06053037          450           24          240 
 4783000        478.3    519501.68   0.33934739   0.06053037          450           24          240 
 4784000        478.4    519672.18    0.3386229   0.06053037          450           24          240 
 4785000        478.5    519846.21    0.3378659   0.06053037          450           24          240 
 4786000        478.6    520012.04   0.33711607   0.06053037          450           24          240 
 4787000        478.7    520188.31    0.3362834   0.06053037          450           24          240 
 4788000        478.8    520386.27   0.33538161   0.06053037          450           24          240 
 4789000        478.9     520594.4   0.33438661   0.06053037          450           24          240 
 4790000          479    520766.28   0.33345357   0.06053037          450           24          240 
 4791000        479.1    520990.16    0.3324553   0.06053037          450           24          240 
 4792000        479.2    521208.25   0.33128284   0.06053037          450           24          240 
 4793000        479.3    521417.01   0.33021762   0.06053037          450           24          240 
 4794000        479.4    521593.64    0.3291913   0.06053037          450           24          240 
 4795000        479.5    521807.63   0.32796666   0.06053037          450           24          240 
 4796000        479.6    522047.21    0.3266844   0.06053037          450           24          240 
 4797000        479.7    522224.86   0.32550208   0.06053037          450           24          240 
 4798000        479.8    522463.91   0.32418651   0.06053037          450           24          240 
 4799000        479.9    522709.97   0.32280364   0.06053037          450           24          240 
 4800000          480     523014.5   0.32138624   0.06053037          450           24          240 
 4801000        480.1    523346.49   0.31992055   0.06053037          450           24          240 
 4802000        480.2     523698.7   0.31845994   0.06053037          450           24          240 
 4803000        480.3    523990.18   0.31686042   0.06053037          450           24          240 
 4804000        480.4    524259.79   0.31525705   0.06053037          450           24          240 
 4805000        480.5    524603.63   0.31369078   0.06053037          450           24          240 
 4806000        480.6    524937.12   0.31199647   0.06053037          450           24          240 
 4807000        480.7    525288.91     0.310234   0.06053037          450           24          240 
 4808000        480.8     525643.6    0.3085478   0.06053037          450           24          240 
 4809000        480.9       526039   0.30671962   0.06053037          450           24          240 
 4810000          481    526433.95   0.30476408   0.06053037          450           24          240 
 4811000        481.1    526792.14   0.30285459   0.06053037          450           24          240 
 4812000        481.2    527178.48   0.30095175   0.06053037          450           24          240 
 4813000        481.3    527547.62   0.29892974   0.06053037          450           24          240 
 4814000        481.4    527939.61   0.29683864   0.06053037          450           24          240 
 4815000        481.5    528206.98   0.29480931   0.06053037          450           24          240 
 4816000        481.6    528516.68   0.29273549   0.06053037          450           24          240 
 4817000        481.7    528823.14    0.2905048   0.06053037          450           24          240 
 4818000        481.8    529104.44   0.28835596   0.06053037          450           24          240 
 4819000        481.9    529309.05   0.28615509   0.06053037          450           24          240 
 4820000          482    529540.87   0.28374342   0.06053037          450           24          240 
 4821000        482.1    529732.58   0.28139016   0.06053037          450           24          240 
 4822000        482.2    529912.22   0.27904627   0.06053037          450           24          240 
 4823000        482.3    530070.37   0.27650678   0.06053037          450           24          240 
 4824000        482.4    530128.91   0.27408547   0.06053037          450           24          240 
 4825000        482.5    530220.63   0.27162792   0.06053037          450           24          240 
 4826000        482.6    530351.87   0.26898791   0.06053037          450           24          240 
 4827000        482.7    530498.86   0.26642478   0.06053037          450           24          240 
 4828000        482.8    530662.22   0.26384663   0.06053037          450           24          240 
 4829000        482.9    530835.41   0.26111294   0.06053037          450           24          240 
 4830000          483    530954.31    0.2583076   0.06053037          450           24          240 
 4831000        483.1    531060.11   0.25556182   0.06053037          450           24          240 
 4832000        483.2     531234.4   0.25276369   0.06053037          450           24          240 
 4833000        483.3    531418.47   0.24988651   0.06053037          450           24          240 
 4834000        483.4    531633.25   0.24708459   0.06053037          450           24          240 
 4835000        483.5    531786.49   0.24426033   0.06053037          450           24          240 
 4836000        483.6    532018.69   0.24139811   0.06053037          450           24          240 
 4837000        483.7    532310.54   0.23836896   0.06053037          450           24          240 
 4838000        483.8    532618.79    0.2352645   0.06053037          450           24          240 
 4839000        483.9    532906.07   0.23219421   0.06053037          450           24          240 
 4840000          484    533254.89   0.22909528   0.06053037          450           24          240 
 4841000        484.1    533652.89   0.22595329   0.06053037          450           24          240 
 4842000        484.2     534052.8   0.22288365   0.06053037          450           24          240 
 4843000        484.3     534490.2    0.2198022   0.06053037          450           24          240 
 4844000        484.4    534917.86   0.21667136   0.06053037          450           24          240 
 4845000        484.5    535387.06    0.2134719   0.06053037          450           24          240 
 4846000        484.6    535876.25   0.21019017   0.06053037          450           24          240 
 4847000        484.7    536407.03     0.206842   0.06053037          450           24          240 
 4848000        484.8    536977.43   0.20354829   0.06053037          450           24          240 
 4849000        484.9    537531.08    0.2003703   0.06053037          450           24          240 
 4850000          485    538003.73   0.19702705   0.06053037          450           24          240 
 4851000        485.1    538446.91   0.19378055   0.06053037          450           24          240 
 4852000        485.2    538875.59   0.19043439   0.06053037          450           24          240 
 4853000        485.3    539265.59   0.18704723   0.06053037          450           24          240 
 4854000        485.4     539565.6   0.18382239   0.06053037          450           24          240 
 4855000        485.5    539849.93   0.18049874   0.06053037          450           24          240 
 4856000        485.6    540127.74   0.17698607   0.06053037          450           24          240 
 4857000        485.7     540438.4   0.17348535   0.06053037          450           24          240 
 4858000        485.8    540795.86   0.17002494   0.06053037          450           24          240 
 4859000        485.9    541125.16   0.16661181   0.06053037          450           24          240 
 4860000          486    541516.05    0.1631834   0.06053037          450           24          240 
 4861000        486.1    541852.95   0.15980514   0.06053037          450           24          240 
 4862000        486.2    542178.06   0.15653034   0.06053037          450           24          240 
 4863000        486.3    542551.68   0.15321046   0.06053037          450           24          240 
 4864000        486.4    542936.92   0.14976191   0.06053037          450           24          240 
 4865000        486.5     543297.3   0.14630405   0.06053037          450           24          240 
 4866000        486.6    543654.07    0.1429713   0.06053037          450           24          240 
 4867000        486.7    543986.49   0.13962524   0.06053037          450           24          240 
 4868000        486.8    544367.56   0.13624503   0.06053037          450           24          240 
 4869000        486.9    544733.63   0.13292148   0.06053037          450           24          240 
 4870000          487    545054.05   0.12962721   0.06053037          450           24          240 
 4871000        487.1    545393.39   0.12639938   0.06053037          450           24          240 
 4872000        487.2    545712.06   0.12306553   0.06053037          450           24          240 
 4873000        487.3    545974.17   0.11967115   0.06053037          450           24          240 
 4874000        487.4    546241.31   0.11654046   0.06053037          450           24          240 
 4875000        487.5    546548.37   0.11334205   0.06053037          450           24          240 
 4876000        487.6    546839.03   0.11017507   0.06053037          450           24          240 
 4877000        487.7    547113.25   0.10695243   0.06053037          450           24          240 
 4878000        487.8    547329.65   0.10373021   0.06053037          450           24          240 
 4879000        487.9     547472.7   0.10064254   0.06053037          450           24          240 
 4880000          488    547676.27  0.097571156   0.06053037          450           24          240 
 4881000        488.1    547870.71  0.094542074   0.06053037          450           24          240 
 4882000        488.2    548078.22  0.091585836   0.06053037          450           24          240 
 4883000        488.3     548289.7   0.08880418   0.06053037          450           24          240 
 4884000        488.4    548419.26  0.086042827   0.06053037          450           24          240 
 4885000        488.5    548523.24  0.083260405   0.06053037          450           24          240 
 4886000        488.6    548587.22   0.08044008   0.06053037          450           24          240 
 4887000        488.7    548632.11  0.077519253   0.06053037          450           24          240 
 4888000        488.8     548656.9  0.074794992   0.06053037          450           24          240 
 4889000        488.9    548688.74  0.072255593   0.06053037          450           24          240 
 4890000          489    548723.58  0.069706845   0.06053037          450           24          240 
 4891000        489.1    548716.91   0.06727657   0.06053037          450           24          240 
 4892000        489.2    548697.89  0.064975135   0.06053037          450           24          240 
 4893000        489.3    548683.06  0.062526462   0.06053037          450           24          240 
 4894000        489.4     548666.7  0.060188236   0.06053037          450           24          240 
 4895000        489.5    548650.26  0.058099291   0.06053037          450           24          240 
 4896000        489.6    548625.81   0.05594807   0.06053037          450           24          240 
 4897000        489.7     548542.8  0.053876867   0.06053037          450           24          240 
 4898000        489.8    548437.32  0.051907303   0.06053037          450           24          240 
 4899000        489.9     548305.5   0.04996667   0.06053037          450           24          240 
 4900000          490    548147.81   0.04804179   0.06053037          450           24          240 
 4901000        490.1    547910.27  0.046221596   0.06053037          450           24          240 
 4902000        490.2    547670.47  0.044504309   0.06053037          450           24          240 
 4903000        490.3    547437.12   0.04301813   0.06053037          450           24          240 
 4904000        490.4    547199.54   0.04149936   0.06053037          450           24          240 
 4905000        490.5    546944.33  0.040097471   0.06053037          450           24          240 
 4906000        490.6    546707.33  0.038821634   0.06053037          450           24          240 
 4907000        490.7    546495.13   0.03762116   0.06053037          450           24          240 
 4908000        490.8    546332.63  0.036493127   0.06053037          450           24          240 
 4909000        490.9    546132.83  0.035454284   0.06053037          450           24          240 
 4910000          491    545875.37  0.034596869   0.06053037          450           24          240 
 4911000        491.1    545586.45  0.033712819   0.06053037          450           24          240 
 4912000        491.2    545303.22  0.032932434   0.06053037          450           24          240 
 4913000        491.3    545001.09  0.032334581   0.06053037          450           24          240 
 4914000        491.4    544669.59  0.031929681   0.06053037          450           24          240 
 4915000        491.5    544287.11  0.031678737   0.06053037          450           24          240 
 4916000        491.6    543886.39  0.031595144   0.06053037          450           24          240 
 4917000        491.7    543529.55  0.031527426   0.06053037          450           24          240 
 4918000        491.8     543181.2  0.031474984   0.06053037          450           24          240 
 4919000        491.9    542837.02  0.031633489   0.06053037          450           24          240 
 4920000          492    542558.85  0.032145932   0.06053037          450           24          240 
 4921000        492.1    542229.14  0.032835004   0.06053037          450           24          240 
 4922000        492.2       541943  0.033544647   0.06053037          450           24          240 
 4923000        492.3    541664.37  0.034352544   0.06053037          450           24          240 
 4924000        492.4    541379.38  0.035366253   0.06053037          450           24          240 
 4925000        492.5    541099.52  0.036391676   0.06053037          450           24          240 
 4926000        492.6    540801.16  0.037576755   0.06053037          450           24          240 
 4927000        492.7    540505.48  0.038775144   0.06053037          450           24          240 
 4928000        492.8    540298.49  0.040065871   0.06053037          450           24          240 
 4929000        492.9    540108.57  0.041565963   0.06053037          450           24          240 
 4930000          493    539864.69  0.043098872   0.06053037          450           24          240 
 4931000        493.1    539625.79  0.044595993   0.06053037          450           24          240 
 4932000        493.2    539478.03  0.046259877   0.06053037          450           24          240 
 4933000        493.3    539272.84   0.04799339   0.06053037          450           24          240 
 4934000        493.4    539105.89  0.049887526   0.06053037          450           24          240 
 4935000        493.5    538915.93  0.051849929   0.06053037          450           24          240 
 4936000        493.6    538612.73  0.053912307   0.06053037          450           24          240 
 4937000        493.7    538251.66  0.056032764   0.06053037          450           24          240 
 4938000        493.8    537853.78  0.058365779   0.06053037          450           24          240 
 4939000        493.9    537396.25  0.060669733   0.06053037          450           24          240 
 4940000          494    536860.33  0.062882226   0.06053037          450           24          240 
 4941000        494.1    536247.94  0.065134804   0.06053037          450           24          240 
 4942000        494.2    535635.42   0.06761382   0.06053037          450           24          240 
 4943000        494.3    535080.58  0.070275557   0.06053037          450           24          240 
 4944000        494.4    534496.31  0.072749334   0.06053037          450           24          240 
 4945000        494.5    533912.32  0.075480451   0.06053037          450           24          240 
 4946000        494.6    533368.41  0.078269099   0.06053037          450           24          240 
 4947000        494.7    532917.54  0.080987311   0.06053037          450           24          240 
 4948000        494.8    532560.28  0.083619333   0.06053037          450           24          240 
 4949000        494.9    532256.22  0.086388432   0.06053037          450           24          240 
 4950000          495    531949.91  0.089347915   0.06053037          450           24          240 
 4951000        495.1    531663.74  0.092383759   0.06053037          450           24          240 
 4952000        495.2    531371.15  0.095359218   0.06053037          450           24          240 
 4953000        495.3    531087.03  0.098358449   0.06053037          450           24          240 
 4954000        495.4    530899.06   0.10147741   0.06053037          450           24          240 
 4955000        495.5    530771.42   0.10463023   0.06053037          450           24          240 
 4956000        495.6    530683.04   0.10801996   0.06053037          450           24          240 
 4957000        495.7    530554.38   0.11120313   0.06053037          450           24          240 
 4958000        495.8    530437.58   0.11411685   0.06053037          450           24          240 
 4959000        495.9    530336.98   0.11721997   0.06053037          450           24          240 
 4960000          496    530171.92   0.12049953   0.06053037          450           24          240 
 4961000        496.1    530006.28   0.12375019   0.06053037          450           24          240 
 4962000        496.2    529908.56   0.12700483   0.06053037          450           24          240 
 4963000        496.3    529870.69   0.13026254   0.06053037          450           24          240 
 4964000        496.4    529894.38   0.13354191   0.06053037          450           24          240 
 4965000        496.5    529973.81   0.13700298   0.06053037          450           24          240 
 4966000        496.6    530054.48   0.14048993   0.06053037          450           24          240 
 4967000        496.7    530150.35   0.14393435   0.06053037          450           24          240 
 4968000        496.8    530292.97   0.14737662   0.06053037          450           24          240 
 4969000        496.9    530426.08   0.15074924   0.06053037          450           24          240 
 4970000          497    530483.73   0.15413822   0.06053037          450           24          240 
 4971000        497.1    530568.33   0.15753524   0.06053037          450           24          240 
 4972000        497.2    530732.31   0.16089511   0.06053037          450           24          240 
 4973000        497.3    530943.33   0.16428844   0.06053037          450           24          240 
 4974000        497.4    531176.22   0.16779402   0.06053037          450           24          240 
 4975000        497.5    531385.94   0.17134818   0.06053037          450           24          240 
 4976000        497.6    531604.61   0.17493116   0.06053037          450           24          240 
 4977000        497.7    531814.77   0.17855419   0.06053037          450           24          240 
 4978000        497.8    531925.97   0.18190289   0.06053037          450           24          240 
 4979000        497.9    532040.97   0.18520585   0.06053037          450           24          240 
 4980000          498     532261.9   0.18852403   0.06053037          450           24          240 
 4981000        498.1    532509.72   0.19181512   0.06053037          450           24          240 
 4982000        498.2    532697.49     0.195137   0.06053037          450           24          240 
 4983000        498.3    532828.16   0.19856992   0.06053037          450           24          240 
 4984000        498.4     532992.1   0.20197675   0.06053037          450           24          240 
 4985000        498.5    533120.46   0.20517556   0.06053037          450           24          240 
 4986000        498.6    533270.07   0.20851286   0.06053037          450           24          240 
 4987000        498.7    533489.63   0.21179554   0.06053037          450           24          240 
 4988000        498.8    533763.67   0.21495302   0.06053037          450           24          240 
 4989000        498.9    534103.76   0.21799818   0.06053037          450           24          240 
 4990000          499    534489.42     0.221276   0.06053037          450           24          240 
 4991000        499.1     534826.7   0.22463934   0.06053037          450           24          240 
 4992000        499.2    535168.26   0.22785621   0.06053037          450           24          240 
 4993000        499.3    535455.96   0.23090469   0.06053037          450           24          240 
 4994000        499.4     535710.9   0.23397232   0.06053037          450           24          240 
 4995000        499.5       535927   0.23706083   0.06053037          450           24          240 
 4996000        499.6    536083.33   0.24004872   0.06053037          450           24          240 
 4997000        499.7    536222.01   0.24298363   0.06053037          450           24          240 
 4998000        499.8    536399.77   0.24599578   0.06053037          450           24          240 
 4999000        499.9    536645.84    0.2490195   0.06053037          450           24          240 
 5000000          500    536919.49   0.25182668   0.06053037          450           24          240 
 5001000        500.1    537140.57   0.25454934   0.06053037          450           24          240 
 5002000        500.2    537366.82   0.25742651   0.06053037          450           24          240 
 5003000        500.3    537572.05   0.26031283   0.06053037          450           24          240 
 5004000        500.4    537699.54     0.262946   0.06053037          450           24          240 
 5005000        500.5    537810.29   0.26565607   0.06053037          450           24          240 
 5006000        500.6    537940.04   0.26837727   0.06053037          450           24          240 
 5007000        500.7     538082.5   0.27098129   0.06053037          450           24          240 
 5008000        500.8    538229.23   0.27342454   0.06053037          450           24          240 
 5009000        500.9    538384.51   0.27591383   0.06053037          450           24          240 
 5010000          501    538431.82   0.27851452   0.06053037          450           24          240 
 5011000        501.1    538533.11   0.28100593   0.06053037          450           24          240 
 5012000        501.2    538577.34   0.28334533   0.06053037          450           24          240 
 5013000        501.3    538522.62   0.28574197   0.06053037          450           24          240 
 5014000        501.4    538476.62   0.28812946   0.06053037          450           24          240 
 5015000        501.5    538447.27   0.29037794   0.06053037          450           24          240 
 5016000        501.6    538478.62   0.29253574   0.06053037          450           24          240 
 5017000        501.7    538487.93   0.29458859   0.06053037          450           24          240 
 5018000        501.8    538608.84   0.29677032   0.06053037          450           24          240 
 5019000        501.9    538713.74   0.29879078   0.06053037          450           24          240 
 5020000          502    538846.88   0.30086508   0.06053037          450           24          240 
 5021000        502.1    539001.72   0.30298734   0.06053037          450           24          240 
 5022000        502.2     539206.9   0.30480136   0.06053037          450           24          240 
 5023000        502.3    539454.82   0.30659787   0.06053037          450           24          240 
 5024000        502.4    539706.96   0.30854366   0.06053037          450           24          240 
 5025000        502.5    539968.57    0.3104054   0.06053037          450           24          240 
 5026000        502.6    540199.85   0.31217214   0.06053037          450           24          240 
 5027000        502.7    540510.74   0.31381998   0.06053037          450           24          240 
 5028000        502.8    540830.63   0.31537141   0.06053037          450           24          240 
 5029000        502.9    541188.29   0.31706458   0.06053037          450           24          240 
 5030000          503    541536.69   0.31871393   0.06053037          450           24          240 
 5031000        503.1    541918.97   0.32025341   0.06053037          450           24          240 
 5032000        503.2    542342.54   0.32165918   0.06053037          450           24          240 
 5033000        503.3    542785.54   0.32289049   0.06053037          450           24          240 
 5034000        503.4     543310.7   0.32420306   0.06053037          450           24          240 
 5035000        503.5    543848.36   0.32565056   0.06053037          450           24          240 
 5036000        503.6    544368.59   0.32691796   0.06053037          450           24          240 
 5037000        503.7    544883.56   0.32819905   0.06053037          450           24          240 
 5038000        503.8    545353.58   0.32945584   0.06053037          450           24          240 
 5039000        503.9    545748.01   0.33066336   0.06053037          450           24          240 
 5040000          504    546134.31   0.33175661   0.06053037          450           24          240 
 5041000        504.1    546451.22   0.33284213   0.06053037          450           24          240 
 5042000        504.2     546766.6   0.33399495   0.06053037          450           24          240 
 5043000        504.3    547098.04   0.33507362   0.06053037          450           24          240 
 5044000        504.4    547401.63    0.3360969   0.06053037          450           24          240 
 5045000        504.5    547672.69   0.33712963   0.06053037          450           24          240 
 5046000        504.6    547931.25   0.33801429   0.06053037          450           24          240 
 5047000        504.7    548172.06   0.33875995   0.06053037          450           24          240 
 5048000        504.8    548505.63   0.33938143   0.06053037          450           24          240 
 5049000        504.9    548793.85    0.3401176   0.06053037          450           24          240 
 5050000          505    549078.49   0.34088753   0.06053037          450           24          240 
 5051000        505.1    549337.81   0.34155742   0.06053037          450           24          240 
 5052000        505.2    549650.35    0.3421552   0.06053037          450           24          240 
 5053000        505.3    549986.41   0.34262696   0.06053037          450           24          240 
 5054000        505.4    550322.46   0.34306458   0.06053037          450           24          240 
 5055000        505.5    550694.78   0.34362177   0.06053037          450           24          240 
 5056000        505.6    551024.59   0.34412939   0.06053037          450           24          240 
 5057000        505.7    551338.99   0.34472278   0.06053037          450           24          240 
 5058000        505.8    551611.64   0.34520357   0.06053037          450           24          240 
 5059000        505.9    551835.87   0.34558296   0.06053037          450           24          240 
 5060000          506    552123.73   0.34611373   0.06053037          450           24          240 
 5061000        506.1    552498.77    0.3465699   0.06053037          450           24          240 
 5062000        506.2    552714.04   0.34677496   0.06053037          450           24          240 
 5063000        506.3    552984.94   0.34690765   0.06053037          450           24          240 
 5064000        506.4    553279.99   0.34716705   0.06053037          450           24          240 
 5065000        506.5    553523.34   0.34741626   0.06053037          450           24          240 
 5066000        506.6    553782.13   0.34767169   0.06053037          450           24          240 
 5067000        506.7    554017.14   0.34787419   0.06053037          450           24          240 
 5068000        506.8    554256.49   0.34786401   0.06053037          450           24          240 
 5069000        506.9    554486.18   0.34788866   0.06053037          450           24          240 
 5070000          507    554674.56   0.34797248   0.06053037          450           24          240 
 5071000        507.1    554756.29   0.34808118   0.06053037          450           24          240 
 5072000        507.2    554835.78    0.3480486   0.06053037          450           24          240 
 5073000        507.3    554965.37   0.34794008   0.06053037          450           24          240 
 5074000        507.4    555109.63   0.34801598   0.06053037          450           24          240 
 5075000        507.5    555302.37   0.34812081   0.06053037          450           24          240 
 5076000        507.6    555412.94   0.34812025   0.06053037          450           24          240 
 5077000        507.7    555441.41   0.34789063   0.06053037          450           24          240 
 5078000        507.8    555520.86   0.34772831   0.06053037          450           24          240 
 5079000        507.9    555565.78   0.34784177   0.06053037          450           24          240 
 5080000          508    555548.72   0.34766865   0.06053037          450           24          240 
 5081000        508.1    555535.47   0.34737864   0.06053037          450           24          240 
 5082000        508.2    555638.61    0.3470958   0.06053037          450           24          240 
 5083000        508.3       555793   0.34674803   0.06053037          450           24          240 
 5084000        508.4    555957.94   0.34646711   0.06053037          450           24          240 
 5085000        508.5    556073.47   0.34639923   0.06053037          450           24          240 
 5086000        508.6    556137.85   0.34619892   0.06053037          450           24          240 
 5087000        508.7    556224.06   0.34579637   0.06053037          450           24          240 
 5088000        508.8    556229.39   0.34561391   0.06053037          450           24          240 
 5089000        508.9    556204.39   0.34541761   0.06053037          450           24          240 
 5090000          509    556168.82   0.34496917   0.06053037          450           24          240 
 5091000        509.1    556111.01   0.34454972   0.06053037          450           24          240 
 5092000        509.2    556058.07   0.34417854   0.06053037          450           24          240 
 5093000        509.3    555955.57    0.3438605   0.06053037          450           24          240 
 5094000        509.4    555868.73   0.34342248   0.06053037          450           24          240 
 5095000        509.5    555784.78   0.34304403   0.06053037          450           24          240 
 5096000        509.6    555713.87    0.3426828   0.06053037          450           24          240 
 5097000        509.7    555646.41   0.34231826   0.06053037          450           24          240 
 5098000        509.8    555552.34   0.34194568   0.06053037          450           24          240 
 5099000        509.9    555380.28   0.34146804   0.06053037          450           24          240 
 5100000          510    555241.87    0.3410793   0.06053037          450           24          240 
 5101000        510.1    555131.75   0.34066664   0.06053037          450           24          240 
 5102000        510.2    555029.57    0.3401787   0.06053037          450           24          240 
 5103000        510.3    554910.51   0.33962427   0.06053037          450           24          240 
 5104000        510.4    554659.62   0.33921181   0.06053037          450           24          240 
 5105000        510.5    554429.91    0.3389344   0.06053037          450           24          240 
 5106000        510.6    554257.08   0.33854249   0.06053037          450           24          240 
 5107000        510.7    554112.41   0.33806438   0.06053037          450           24          240 
 5108000        510.8    553984.53   0.33775066   0.06053037          450           24          240 
 5109000        510.9    553863.94   0.33735021   0.06053037          450           24          240 
 5110000          511    553700.36   0.33684067   0.06053037          450           24          240 
 5111000        511.1    553573.76   0.33637622   0.06053037          450           24          240 
 5112000        511.2     553468.7   0.33595463   0.06053037          450           24          240 
 5113000        511.3    553403.94   0.33553816   0.06053037          450           24          240 
 5114000        511.4    553283.88   0.33506143   0.06053037          450           24          240 
 5115000        511.5     553145.4   0.33457346   0.06053037          450           24          240 
 5116000        511.6    552985.37   0.33419948   0.06053037          450           24          240 
 5117000        511.7    552802.84   0.33381312   0.06053037          450           24          240 
 5118000        511.8    552573.52   0.33340441   0.06053037          450           24          240 
 5119000        511.9    552297.29   0.33298159   0.06053037          450           24          240 
 5120000          512    552050.51   0.33251719   0.06053037          450           24          240 
 5121000        512.1    551824.09   0.33211176   0.06053037          450           24          240 
 5122000        512.2    551679.02   0.33161002   0.06053037          450           24          240 
 5123000        512.3    551545.05    0.3309833   0.06053037          450           24          240 
 5124000        512.4       551354   0.33060764   0.06053037          450           24          240 
 5125000        512.5    551098.43   0.33032379   0.06053037          450           24          240 
 5126000        512.6    550869.53    0.3297935   0.06053037          450           24          240 
 5127000        512.7    550669.48   0.32943408   0.06053037          450           24          240 
 5128000        512.8    550431.66   0.32908192   0.06053037          450           24          240 
 5129000        512.9    550085.22   0.32860793   0.06053037          450           24          240 
 5130000          513    549743.48   0.32815119   0.06053037          450           24          240 
 5131000        513.1    549390.88   0.32780208   0.06053037          450           24          240 
 5132000        513.2    548978.02   0.32744058   0.06053037          450           24          240 
 5133000        513.3    548553.82   0.32700801   0.06053037          450           24          240 
 5134000        513.4    548109.15   0.32665126   0.06053037          450           24          240 
 5135000        513.5     547733.3   0.32641293   0.06053037          450           24          240 
 5136000        513.6    547362.11   0.32600953   0.06053037          450           24          240 
 5137000        513.7    546918.83   0.32545228   0.06053037          450           24          240 
 5138000        513.8    546390.66   0.32507239   0.06053037          450           24          240 
 5139000        513.9    545837.86   0.32472442   0.06053037          450           24          240 
 5140000          514    545228.97   0.32439963   0.06053037          450           24          240 
 5141000        514.1    544698.67   0.32407204   0.06053037          450           24          240 
 5142000        514.2    544185.05   0.32375219   0.06053037          450           24          240 
 5143000        514.3    543685.62   0.32347735   0.06053037          450           24          240 
 5144000        514.4    543192.58   0.32328456   0.06053037          450           24          240 
 5145000        514.5    542741.16   0.32314703   0.06053037          450           24          240 
 5146000        514.6    542208.51   0.32291744   0.06053037          450           24          240 
 5147000        514.7    541586.26   0.32259664   0.06053037          450           24          240 
 5148000        514.8    540957.33   0.32223308   0.06053037          450           24          240 
 5149000        514.9    540265.28   0.32197005   0.06053037          450           24          240 
 5150000          515    539610.65   0.32176746   0.06053037          450           24          240 
 5151000        515.1    538954.75   0.32162725   0.06053037          450           24          240 
 5152000        515.2    538248.73   0.32146543   0.06053037          450           24          240 
 5153000        515.3    537608.15   0.32139178   0.06053037          450           24          240 
 5154000        515.4    537010.33   0.32117867   0.06053037          450           24          240 
 5155000        515.5    536409.05   0.32090251   0.06053037          450           24          240 
 5156000        515.6    535915.71   0.32073125   0.06053037          450           24          240 
 5157000        515.7    535357.65   0.32064408   0.06053037          450           24          240 
 5158000        515.8     534884.7   0.32055634   0.06053037          450           24          240 
 5159000        515.9    534365.36   0.32067284   0.06053037          450           24          240 
 5160000          516    533929.57   0.32057536   0.06053037          450           24          240 
 5161000        516.1    533466.91   0.32044394   0.06053037          450           24          240 
 5162000        516.2    533014.63    0.3204501   0.06053037          450           24          240 
 5163000        516.3     532556.2   0.32032157   0.06053037          450           24          240 
 5164000        516.4    532090.44   0.32011368   0.06053037          450           24          240 
 5165000        516.5    531640.25   0.32015414   0.06053037          450           24          240 
 5166000        516.6     531304.9   0.32027394   0.06053037          450           24          240 
 5167000        516.7    530940.77   0.32023996   0.06053037          450           24          240 
 5168000        516.8    530522.88   0.32022083   0.06053037          450           24          240 
 5169000        516.9    530081.64   0.32035914   0.06053037          450           24          240 
 5170000          517    529651.77   0.32045314   0.06053037          450           24          240 
 5171000        517.1    529222.31   0.32052516   0.06053037          450           24          240 
 5172000        517.2     528805.2   0.32065522   0.06053037          450           24          240 
 5173000        517.3    528381.93   0.32072442   0.06053037          450           24          240 
 5174000        517.4    528027.27   0.32066821   0.06053037          450           24          240 
 5175000        517.5    527763.37   0.32068969   0.06053037          450           24          240 
 5176000        517.6    527543.68   0.32076063   0.06053037          450           24          240 
 5177000        517.7    527362.33   0.32078237   0.06053037          450           24          240 
 5178000        517.8    527174.56   0.32098703   0.06053037          450           24          240 
 5179000        517.9    527034.73   0.32136236   0.06053037          450           24          240 
 5180000          518    526934.69   0.32147964   0.06053037          450           24          240 
 5181000        518.1    526888.38   0.32161958   0.06053037          450           24          240 
 5182000        518.2    526966.55    0.3218555   0.06053037          450           24          240 
 5183000        518.3     527067.4   0.32210823   0.06053037          450           24          240 
 5184000        518.4    527209.13    0.3221677   0.06053037          450           24          240 
 5185000        518.5    527283.44   0.32234978   0.06053037          450           24          240 
 5186000        518.6    527336.39   0.32263346   0.06053037          450           24          240 
 5187000        518.7    527360.83   0.32292643   0.06053037          450           24          240 
 5188000        518.8    527433.85   0.32328234   0.06053037          450           24          240 
 5189000        518.9    527520.03   0.32358585   0.06053037          450           24          240 
 5190000          519    527619.82   0.32387786   0.06053037          450           24          240 
 5191000        519.1    527594.58   0.32413627   0.06053037          450           24          240 
 5192000        519.2    527540.27   0.32441536   0.06053037          450           24          240 
 5193000        519.3    527553.47   0.32477093   0.06053037          450           24          240 
 5194000        519.4    527640.11   0.32506481   0.06053037          450           24          240 
 5195000        519.5    527670.26   0.32546156   0.06053037          450           24          240 
 5196000        519.6    527714.66    0.3258252   0.06053037          450           24          240 
 5197000        519.7    527808.05   0.32610046   0.06053037          450           24          240 
 5198000        519.8    527915.64   0.32637882   0.06053037          450           24          240 
 5199000        519.9    528150.14    0.3267819   0.06053037          450           24          240 
 5200000          520    528387.04   0.32714146   0.06053037          450           24          240 
 5201000        520.1    528598.48   0.32763851   0.06053037          450           24          240 
 5202000        520.2    528745.77   0.32808128   0.06053037          450           24          240 
 5203000        520.3    528886.45    0.3284194   0.06053037          450           24          240 
 5204000        520.4    528975.24   0.32876888   0.06053037          450           24          240 
 5205000        520.5    529046.57   0.32908985   0.06053037          450           24          240 
 5206000        520.6    529170.64   0.32945878   0.06053037          450           24          240 
 5207000        520.7    529305.53    0.3298843   0.06053037          450           24          240 
 5208000        520.8    529461.71   0.33034956   0.06053037          450           24          240 
 5209000        520.9    529605.32   0.33069859   0.06053037          450           24          240 
 5210000          521     529700.1   0.33103531   0.06053037          450           24          240 
 5211000        521.1    529882.12   0.33150741   0.06053037          450           24          240 
 5212000        521.2    530035.06   0.33199889   0.06053037          450           24          240 
 5213000        521.3    530077.65   0.33251904   0.06053037          450           24          240 
 5214000        521.4    530124.54   0.33297333   0.06053037          450           24          240 
 5215000        521.5    530250.37   0.33330331   0.06053037          450           24          240 
 5216000        521.6    530373.17   0.33366182   0.06053037          450           24          240 
 5217000        521.7    530474.34   0.33407298   0.06053037          450           24          240 
 5218000        521.8    530583.57   0.33445641   0.06053037          450           24          240 
 5219000        521.9    530597.34   0.33491574   0.06053037          450           24          240 
 5220000          522    530560.59   0.33543709   0.06053037          450           24          240 
 5221000        522.1    530511.96   0.33593108   0.06053037          450           24          240 
 5222000        522.2    530442.08   0.33639703   0.06053037          450           24          240 
 5223000        522.3    530408.71   0.33674429   0.06053037          450           24          240 
 5224000        522.4    530347.65   0.33719997   0.06053037          450           24          240 
 5225000        522.5    530286.51   0.33753271   0.06053037          450           24          240 
 5226000        522.6    530245.89   0.33792957   0.06053037          450           24          240 
 5227000        522.7    530172.76   0.33834265   0.06053037          450           24          240 
 5228000        522.8    530035.14   0.33867681   0.06053037          450           24          240 
 5229000        522.9    529918.99   0.33908449   0.06053037          450           24          240 
 5230000          523    529758.95   0.33944313   0.06053037          450           24          240 
 5231000        523.1    529661.74   0.33988764   0.06053037          450           24          240 
 5232000        523.2    529588.64   0.34031991   0.06053037          450           24          240 
 5233000        523.3    529470.84   0.34082363   0.06053037          450           24          240 
 5234000        523.4    529320.04   0.34124746   0.06053037          450           24          240 
 5235000        523.5    529160.66   0.34153729   0.06053037          450           24          240 
 5236000        523.6    528953.88   0.34186819   0.06053037          450           24          240 
 5237000        523.7    528707.59   0.34228434   0.06053037          450           24          240 
 5238000        523.8    528403.17   0.34252839   0.06053037          450           24          240 
 5239000        523.9    528130.71    0.3426964   0.06053037          450           24          240 
 5240000          524    527841.25   0.34296971   0.06053037          450           24          240 
 5241000        524.1    527582.61   0.34324874   0.06053037          450           24          240 
 5242000        524.2    527324.76   0.34356463   0.06053037          450           24          240 
 5243000        524.3    527032.73   0.34399576   0.06053037          450           24          240 
 5244000        524.4    526738.02   0.34422607   0.06053037          450           24          240 
 5245000        524.5    526381.33   0.34438872   0.06053037          450           24          240 
 5246000        524.6    526044.14   0.34459362   0.06053037          450           24          240 
 5247000        524.7     525706.7   0.34484905   0.06053037          450           24          240 
 5248000        524.8    525425.59    0.3451254   0.06053037          450           24          240 
 5249000        524.9    525210.17   0.34516709   0.06053037          450           24          240 
 5250000          525    524988.82   0.34523859   0.06053037          450           24          240 
 5251000        525.1    524834.56   0.34533699   0.06053037          450           24          240 
 5252000        525.2    524604.57   0.34545712   0.06053037          450           24          240 
 5253000        525.3    524326.92   0.34568382   0.06053037          450           24          240 
 5254000        525.4    523989.06   0.34572493   0.06053037          450           24          240 
 5255000        525.5    523698.33   0.34562108   0.06053037          450           24          240 
 5256000        525.6    523377.17   0.34557952   0.06053037          450           24          240 
 5257000        525.7    523185.92   0.34547394   0.06053037          450           24          240 
 5258000        525.8    523048.14   0.34539722   0.06053037          450           24          240 
 5259000        525.9    523011.41   0.34535089   0.06053037          450           24          240 
 5260000          526     522968.8   0.34529215   0.06053037          450           24          240 
 5261000        526.1     522896.6   0.34523472   0.06053037          450           24          240 
 5262000        526.2    522848.75   0.34518707   0.06053037          450           24          240 
 5263000        526.3    522769.33   0.34507219   0.06053037          450           24          240 
 5264000        526.4    522641.87   0.34492707   0.06053037          450           24          240 
 5265000        526.5    522612.58   0.34457873   0.06053037          450           24          240 
 5266000        526.6    522589.06    0.3441623   0.06053037          450           24          240 
 5267000        526.7    522499.72   0.34397206   0.06053037          450           24          240 
 5268000        526.8    522399.43   0.34366836   0.06053037          450           24          240 
 5269000        526.9    522385.77   0.34314755   0.06053037          450           24          240 
 5270000          527    522408.02    0.3427339   0.06053037          450           24          240 
 5271000        527.1    522461.28   0.34237137   0.06053037          450           24          240 
 5272000        527.2     522594.8   0.34191017   0.06053037          450           24          240 
 5273000        527.3     522715.8   0.34134997   0.06053037          450           24          240 
 5274000        527.4    522784.64   0.34088687   0.06053037          450           24          240 
 5275000        527.5    522835.32   0.34042703   0.06053037          450           24          240 
 5276000        527.6    522924.36   0.33979107   0.06053037          450           24          240 
 5277000        527.7    522973.48   0.33912981   0.06053037          450           24          240 
 5278000        527.8    523039.82   0.33851049   0.06053037          450           24          240 
 5279000        527.9    523169.32     0.337723   0.06053037          450           24          240 
 5280000          528    523286.75   0.33693384   0.06053037          450           24          240 
 5281000        528.1    523457.73   0.33616582   0.06053037          450           24          240 
 5282000        528.2    523549.36   0.33539128   0.06053037          450           24          240 
 5283000        528.3    523687.61   0.33445342   0.06053037          450           24          240 
 5284000        528.4    523862.22   0.33357209   0.06053037          450           24          240 
 5285000        528.5    524032.36    0.3325699   0.06053037          450           24          240 
 5286000        528.6    524152.25    0.3315016   0.06053037          450           24          240 
 5287000        528.7    524282.75   0.33042612   0.06053037          450           24          240 
 5288000        528.8    524411.68   0.32930333   0.06053037          450           24          240 
 5289000        528.9    524651.27   0.32832927   0.06053037          450           24          240 
 5290000          529    524844.15   0.32731368   0.06053037          450           24          240 
 5291000        529.1    525057.74   0.32614737   0.06053037          450           24          240 
 5292000        529.2    525213.39   0.32487831   0.06053037          450           24          240 
 5293000        529.3    525322.53   0.32361644   0.06053037          450           24          240 
 5294000        529.4    525481.15    0.3222452   0.06053037          450           24          240 
 5295000        529.5    525659.32   0.32066427   0.06053037          450           24          240 
 5296000        529.6    525846.05   0.31928085   0.06053037          450           24          240 
 5297000        529.7    525955.41   0.31796122   0.06053037          450           24          240 
 5298000        529.8    526014.09    0.3163937   0.06053037          450           24          240 
 5299000        529.9    526112.43   0.31493871   0.06053037          450           24          240 
 5300000          530    526206.28    0.3134012   0.06053037          450           24          240 
 5301000        530.1    526290.29   0.31167308   0.06053037          450           24          240 
 5302000        530.2    526465.29   0.30984102   0.06053037          450           24          240 
 5303000        530.3    526686.35   0.30800504   0.06053037          450           24          240 
 5304000        530.4    526933.08   0.30617909   0.06053037          450           24          240 
 5305000        530.5    527170.28   0.30440852   0.06053037          450           24          240 
 5306000        530.6    527367.43   0.30261268   0.06053037          450           24          240 
 5307000        530.7    527576.08   0.30067391   0.06053037          450           24          240 
 5308000        530.8       527807   0.29876851   0.06053037          450           24          240 
 5309000        530.9     527985.1   0.29670653   0.06053037          450           24          240 
 5310000          531    528155.08    0.2945905   0.06053037          450           24          240 
 5311000        531.1    528351.99   0.29257941   0.06053037          450           24          240 
 5312000        531.2     528596.5     0.290417   0.06053037          450           24          240 
 5313000        531.3    528750.57   0.28812586   0.06053037          450           24          240 
 5314000        531.4    528919.52   0.28573497   0.06053037          450           24          240 
 5315000        531.5    529080.59   0.28338344   0.06053037          450           24          240 
 5316000        531.6    529193.04   0.28109167   0.06053037          450           24          240 
 5317000        531.7    529382.07   0.27888421   0.06053037          450           24          240 
 5318000        531.8    529595.19   0.27657469   0.06053037          450           24          240 
 5319000        531.9    529765.16    0.2740798   0.06053037          450           24          240 
 5320000          532    529953.16   0.27153477   0.06053037          450           24          240 
 5321000        532.1     530093.7   0.26904052   0.06053037          450           24          240 
 5322000        532.2    530238.74   0.26642748   0.06053037          450           24          240 
 5323000        532.3    530397.15   0.26378051   0.06053037          450           24          240 
 5324000        532.4    530536.65   0.26112836   0.06053037          450           24          240 
 5325000        532.5    530768.09   0.25830589   0.06053037          450           24          240 
 5326000        532.6    531030.07   0.25542413   0.06053037          450           24          240 
 5327000        532.7    531273.33   0.25272846   0.06053037          450           24          240 
 5328000        532.8    531507.36   0.24998818   0.06053037          450           24          240 
 5329000        532.9    531781.81    0.2471318   0.06053037          450           24          240 
 5330000          533       532004    0.2442385   0.06053037          450           24          240 
 5331000        533.1    532155.81   0.24123046   0.06053037          450           24          240 
 5332000        533.2    532437.67   0.23824242   0.06053037          450           24          240 
 5333000        533.3    532692.13   0.23525071   0.06053037          450           24          240 
 5334000        533.4    532935.16   0.23223633   0.06053037          450           24          240 
 5335000        533.5    533140.23   0.22922187   0.06053037          450           24          240 
 5336000        533.6    533247.62    0.2261493   0.06053037          450           24          240 
 5337000        533.7     533323.4   0.22299088   0.06053037          450           24          240 
 5338000        533.8    533408.84   0.21979419   0.06053037          450           24          240 
 5339000        533.9    533482.48   0.21650941   0.06053037          450           24          240 
 5340000          534     533604.3   0.21338419   0.06053037          450           24          240 
 5341000        534.1    533698.41   0.21020931   0.06053037          450           24          240 
 5342000        534.2    533790.01   0.20692243   0.06053037          450           24          240 
 5343000        534.3    533900.06   0.20377523   0.06053037          450           24          240 
 5344000        534.4    534082.95   0.20052829   0.06053037          450           24          240 
 5345000        534.5    534306.26   0.19704087   0.06053037          450           24          240 
 5346000        534.6    534564.67   0.19366816   0.06053037          450           24          240 
 5347000        534.7    534844.17    0.1903247   0.06053037          450           24          240 
 5348000        534.8    535086.89   0.18696794   0.06053037          450           24          240 
 5349000        534.9     535271.5   0.18359967   0.06053037          450           24          240 
 5350000          535    535473.41   0.18018879   0.06053037          450           24          240 
 5351000        535.1    535640.67   0.17689458   0.06053037          450           24          240 
 5352000        535.2    535793.61   0.17344119   0.06053037          450           24          240 
 5353000        535.3    535921.56   0.16993026   0.06053037          450           24          240 
 5354000        535.4    536037.01   0.16646225   0.06053037          450           24          240 
 5355000        535.5    536128.02   0.16297906   0.06053037          450           24          240 
 5356000        535.6     536209.1   0.15965844   0.06053037          450           24          240 
 5357000        535.7     536180.6   0.15632303   0.06053037          450           24          240 
 5358000        535.8    536156.17   0.15278733   0.06053037          450           24          240 
 5359000        535.9    536136.46   0.14930835   0.06053037          450           24          240 
 5360000          536    536092.61    0.1458423   0.06053037          450           24          240 
 5361000        536.1    536044.88   0.14253413   0.06053037          450           24          240 
 5362000        536.2    536033.29   0.13922678   0.06053037          450           24          240 
 5363000        536.3    535925.98   0.13589507   0.06053037          450           24          240 
 5364000        536.4    535842.99   0.13252052   0.06053037          450           24          240 
 5365000        536.5    535790.61   0.12912959   0.06053037          450           24          240 
 5366000        536.6    535757.81   0.12583612   0.06053037          450           24          240 
 5367000        536.7     535749.9    0.1225856   0.06053037          450           24          240 
 5368000        536.8    535764.49   0.11932458   0.06053037          450           24          240 
 5369000        536.9    535655.57   0.11603755   0.06053037          450           24          240 
 5370000          537    535579.42   0.11271174   0.06053037          450           24          240 
 5371000        537.1    535515.06   0.10943347   0.06053037          450           24          240 
 5372000        537.2    535497.28   0.10623229   0.06053037          450           24          240 
 5373000        537.3    535519.98   0.10307121   0.06053037          450           24          240 
 5374000        537.4     535556.4   0.10000633   0.06053037          450           24          240 
 5375000        537.5    535587.45  0.097081367   0.06053037          450           24          240 
 5376000        537.6    535687.76  0.094026518   0.06053037          450           24          240 
 5377000        537.7    535769.43  0.091006364   0.06053037          450           24          240 
 5378000        537.8    535906.78  0.088035841   0.06053037          450           24          240 
 5379000        537.9    536080.45  0.085139131   0.06053037          450           24          240 
 5380000          538    536225.76  0.082269383   0.06053037          450           24          240 
 5381000        538.1     536358.2  0.079442005   0.06053037          450           24          240 
 5382000        538.2    536421.87  0.076740716   0.06053037          450           24          240 
 5383000        538.3    536515.49  0.073947316   0.06053037          450           24          240 
 5384000        538.4    536594.27  0.071267875   0.06053037          450           24          240 
 5385000        538.5    536673.25  0.068644203   0.06053037          450           24          240 
 5386000        538.6    536753.68  0.066077211   0.06053037          450           24          240 
 5387000        538.7    536736.56  0.063765884   0.06053037          450           24          240 
 5388000        538.8    536661.21  0.061393708   0.06053037          450           24          240 
 5389000        538.9    536602.66  0.058826256   0.06053037          450           24          240 
 5390000          539    536521.37  0.056624539   0.06053037          450           24          240 
 5391000        539.1    536413.43  0.054556842   0.06053